     Program PWSCF v.7.1 starts on 15Feb2023 at  8:20:14

     Waiting for input...
     Reading input from standard input

     Current dimensions of program PWSCF are:
     Max number of different atomic species (ntypx) = 10
     Max number of k-points (npk) =  40000
     Max angular momentum in pseudopotentials (lmaxx) =  4
     Message from routine volume:
     axis vectors are left-handed
     file Al.pbe-n-kjpaw_psl.1.0.0.UPF: wavefunction(s)  3S 3P renormalized
     file O.pbe-n-kjpaw_psl.1.0.0.UPF: wavefunction(s)  2S 2P renormalized
     file S.pbe-n-kjpaw_psl.1.0.0.UPF: wavefunction(s)  3S 3P renormalized
     Message from routine setup:
     using ibrav=0 with symmetry is DISCOURAGED, use correct ibrav instead

     R & G space division:  proc/nbgrp/npool/nimage =      12
     Subspace diagonalization in iterative solution of the eigenvalue problem:
     a serial algorithm will be used

     Using Slab Decomposition

     bravais-lattice index     =            0
     lattice parameter (alat)  =       6.1344  a.u.
     unit-cell volume          =    1540.6476 (a.u.)^3
     number of atoms/cell      =            4
     number of atomic types    =            3
     number of electrons       =        18.00
     number of Kohn-Sham states=           36
     kinetic-energy cutoff     =      60.0000  Ry
     charge density cutoff     =     240.0000  Ry
     scf convergence threshold =      1.0E-08
     mixing beta               =       0.5000
     number of iterations used =            8  plain     mixing
     Exchange-correlation= SLA  PW   PBX  PBC
                           (   1   4   3   4   0   0   0)

     celldm(1)=   6.134387  celldm(2)=   0.000000  celldm(3)=   0.000000
     celldm(4)=   0.000000  celldm(5)=   0.000000  celldm(6)=   0.000000

     crystal axes: (cart. coord. in units of alat)
               a(1) = (   0.865734   0.500504   0.000000 )
               a(2) = (   0.865734  -0.500504   0.000000 )
               a(3) = (   0.000000   0.000000   7.701366 )

     reciprocal axes: (cart. coord. in units 2 pi/alat)
               b(1) = (  0.577544  0.998993 -0.000000 )
               b(2) = (  0.577544 -0.998993 -0.000000 )
               b(3) = ( -0.000000 -0.000000  0.129847 )

     PseudoPot. # 1 for Al read from file:
     /home/mainadmin/research/danu/pseudo/Al.pbe-n-kjpaw_psl.1.0.0.UPF
     MD5 check sum: 502b6b27b9c6270cab5dd1084b96fa6d
     Pseudo is Projector augmented-wave + core cor, Zval =  3.0
     Generated using &quot;atomic&quot; code by A. Dal Corso  v.6.3
     Shape of augmentation charge: PSQ
     Using radial grid of 1135 points,  6 beta functions with:
                l(1) =   0
                l(2) =   0
                l(3) =   1
                l(4) =   1
                l(5) =   2
                l(6) =   2
     Q(r) pseudized with 0 coefficients

     PseudoPot. # 2 for O  read from file:
     /home/mainadmin/research/danu/pseudo/O.pbe-n-kjpaw_psl.1.0.0.UPF
     MD5 check sum: e99d9cef9b487d1ca56f5b95ecd0fd7a
     Pseudo is Projector augmented-wave + core cor, Zval =  6.0
     Generated using &quot;atomic&quot; code by A. Dal Corso  v.6.3
     Shape of augmentation charge: PSQ
     Using radial grid of 1095 points,  4 beta functions with:
                l(1) =   0
                l(2) =   0
                l(3) =   1
                l(4) =   1
     Q(r) pseudized with 0 coefficients

     PseudoPot. # 3 for S  read from file:
     /home/mainadmin/research/danu/pseudo/S.pbe-n-kjpaw_psl.1.0.0.UPF
     MD5 check sum: fb45dfebcf3e72a4e1bd4a866ec2e262
     Pseudo is Projector augmented-wave + core cor, Zval =  6.0
     Generated using &quot;atomic&quot; code by A. Dal Corso  v.6.3
     Shape of augmentation charge: PSQ
     Using radial grid of 1151 points,  6 beta functions with:
                l(1) =   0
                l(2) =   0
                l(3) =   1
                l(4) =   1
                l(5) =   2
                l(6) =   2
     Q(r) pseudized with 0 coefficients

     atomic species   valence    mass     pseudopotential
        Al             3.00    26.98100     Al( 1.00)
        O              6.00    15.99900     O ( 1.00)
        S              6.00    32.06500     S ( 1.00)

      2 Sym. Ops. (no inversion) found

   Cartesian axes

     site n.     atom                  positions (alat units)
         1           O   tau(   1) = (   1.1543382   0.0000000   3.2384027  )
         2           Al  tau(   2) = (   0.5778012   0.0000000   3.4059957  )
         3           Al  tau(   3) = (   0.5767468   0.0000000   4.2109002  )
         4           S   tau(   4) = (   1.1540505   0.0000000   4.5877182  )

     number of k points=    49
                       cart. coord. in units 2pi/alat
        k(    1) = (   0.0000000   0.0000000   0.0000000), wk =   0.0118343
        k(    2) = (   0.0444265  -0.0768456   0.0000000), wk =   0.0473373
        k(    3) = (   0.0888530  -0.1536912   0.0000000), wk =   0.0473373
        k(    4) = (   0.1332795  -0.2305368   0.0000000), wk =   0.0473373
        k(    5) = (   0.1777060  -0.3073824   0.0000000), wk =   0.0473373
        k(    6) = (   0.2221325  -0.3842280   0.0000000), wk =   0.0473373
        k(    7) = (   0.2665590  -0.4610737   0.0000000), wk =   0.0473373
        k(    8) = (   0.0888530   0.0000000   0.0000000), wk =   0.0236686
        k(    9) = (   0.1332795  -0.0768456   0.0000000), wk =   0.0473373
        k(   10) = (   0.1777060  -0.1536912   0.0000000), wk =   0.0473373
        k(   11) = (   0.2221325  -0.2305368   0.0000000), wk =   0.0473373
        k(   12) = (   0.2665590  -0.3073824   0.0000000), wk =   0.0473373
        k(   13) = (   0.3109855  -0.3842280   0.0000000), wk =   0.0473373
        k(   14) = (  -0.2221325   0.5379193   0.0000000), wk =   0.0473373
        k(   15) = (  -0.1777060   0.4610737   0.0000000), wk =   0.0473373
        k(   16) = (  -0.1332795   0.3842280   0.0000000), wk =   0.0473373
        k(   17) = (  -0.0888530   0.3073824   0.0000000), wk =   0.0473373
        k(   18) = (  -0.0444265   0.2305368   0.0000000), wk =   0.0473373
        k(   19) = (   0.0000000   0.1536912   0.0000000), wk =   0.0236686
        k(   20) = (   0.1777060   0.0000000   0.0000000), wk =   0.0236686
        k(   21) = (   0.2221325  -0.0768456   0.0000000), wk =   0.0473373
        k(   22) = (   0.2665590  -0.1536912   0.0000000), wk =   0.0473373
        k(   23) = (   0.3109855  -0.2305368   0.0000000), wk =   0.0473373
        k(   24) = (   0.3554120  -0.3073824   0.0000000), wk =   0.0473373
        k(   25) = (  -0.1777060   0.6147649   0.0000000), wk =   0.0473373
        k(   26) = (  -0.1332795   0.5379193   0.0000000), wk =   0.0473373
        k(   27) = (  -0.0888530   0.4610737   0.0000000), wk =   0.0473373
        k(   28) = (  -0.0444265   0.3842280   0.0000000), wk =   0.0473373
        k(   29) = (   0.0000000   0.3073824   0.0000000), wk =   0.0236686
        k(   30) = (   0.2665590   0.0000000   0.0000000), wk =   0.0236686
        k(   31) = (   0.3109855  -0.0768456   0.0000000), wk =   0.0473373
        k(   32) = (   0.3554120  -0.1536912   0.0000000), wk =   0.0473373
        k(   33) = (   0.3998385  -0.2305368   0.0000000), wk =   0.0473373
        k(   34) = (  -0.1332795   0.6916105   0.0000000), wk =   0.0473373
        k(   35) = (  -0.0888530   0.6147649   0.0000000), wk =   0.0473373
        k(   36) = (  -0.0444265   0.5379193   0.0000000), wk =   0.0473373
        k(   37) = (   0.0000000   0.4610737   0.0000000), wk =   0.0236686
        k(   38) = (   0.3554120   0.0000000   0.0000000), wk =   0.0236686
        k(   39) = (   0.3998385  -0.0768456   0.0000000), wk =   0.0473373
        k(   40) = (   0.4442650  -0.1536912   0.0000000), wk =   0.0473373
        k(   41) = (  -0.0888530   0.7684561   0.0000000), wk =   0.0473373
        k(   42) = (  -0.0444265   0.6916105   0.0000000), wk =   0.0473373
        k(   43) = (   0.0000000   0.6147649   0.0000000), wk =   0.0236686
        k(   44) = (   0.4442650   0.0000000   0.0000000), wk =   0.0236686
        k(   45) = (   0.4886915  -0.0768456   0.0000000), wk =   0.0473373
        k(   46) = (  -0.0444265   0.8453017   0.0000000), wk =   0.0473373
        k(   47) = (   0.0000000   0.7684561   0.0000000), wk =   0.0236686
        k(   48) = (   0.5331180   0.0000000   0.0000000), wk =   0.0236686
        k(   49) = (   0.0000000   0.9221473   0.0000000), wk =   0.0236686

     Check: negative core charge=   -0.000002

     Initial potential from superposition of free atoms

     starting charge      17.9954, renormalised to      18.0000

     negative rho (up, down):  1.008E-03 0.000E+00
     Starting wfcs are   16 randomized atomic wfcs +   20 random wfcs
     Checking if some PAW data can be deallocated...

     Self-consistent Calculation

     iteration #  1     ecut=    60.00 Ry     beta= 0.50
     Davidson diagonalization with overlap
     ethr =  1.00E-02,  avg # of iterations =  8.1

     negative rho (up, down):  1.091E-03 0.000E+00

     total energy              =    -187.03457312 Ry
     estimated scf accuracy    <       0.56780679 Ry

[...]

     total energy              =    -187.22311510 Ry
     estimated scf accuracy    <       0.00000002 Ry

     iteration # 10     ecut=    60.00 Ry     beta= 0.50
     Davidson diagonalization with overlap
     ethr =  9.95E-11,  avg # of iterations =  4.2

     negative rho (up, down):  1.197E-03 0.000E+00

     End of self-consistent calculation

          k = 0.0000 0.0000 0.0000 ( 12063 PWs)   bands (ev):

   -21.6514 -15.9998  -8.4961  -6.5506  -6.5460  -6.4184  -3.8198  -2.1484
    -2.1366  -0.6395   2.2163   2.9846   3.0821   3.8954   4.0291   4.3584
     5.3245   5.3274   5.3465   5.7328   6.7735   6.7999   7.2718   8.0354
     8.7350   8.7552   9.2866  10.0759  10.8547  10.8748  11.5255  12.4211
    12.7561  13.0275  13.0425  14.0567

[...]

          k =-0.2221 0.5379 0.0000 ( 12054 PWs)   bands (ev):

[...]

          k =-0.0444 0.8453 0.0000 ( 12050 PWs)   bands (ev):

[...]

          k = 0.0000 0.9221 0.0000 ( 12048 PWs)   bands (ev):

   -21.1065 -14.0768  -9.4806  -8.1927  -7.2278  -6.1169  -4.7269  -4.0265
    -3.0251  -0.4407   2.0768   2.7564   3.2491   4.1999   4.6669   6.4807
     6.7757   7.3502   7.6047   7.6645   7.9375   8.0541   8.4620   8.6332
     8.7606   8.8889   9.2980   9.8756  10.3039  10.3969  10.8357  11.5554
    12.1421  12.2701  12.6202  12.7466

     highest occupied, lowest unoccupied level (ev):    -2.1366   -0.6395

!    total energy              =    -187.22311512 Ry
     total all-electron energy =     -1920.456686 Ry
     estimated scf accuracy    <          5.6E-09 Ry

     The total energy is the sum of the following terms:
     one-electron contribution =    -526.57051052 Ry
     hartree contribution      =     268.22246847 Ry
     xc contribution           =     -17.82709670 Ry
     ewald contribution        =     214.03297340 Ry
     one-center paw contrib.   =    -125.08094977 Ry

     convergence has been achieved in  10 iterations

     Writing all to output data dir ./work/Al2SO.save/

     General routines

     Parallel routines

   This run was terminated on:   8:21: 5  15Feb2023

   JOB DONE.