     Program PWSCF v.7.1 starts on 19Jun2023 at 22:15:38

     Waiting for input...
     Reading input from standard input

     Current dimensions of program PWSCF are:
     Max number of different atomic species (ntypx) = 10
     Max number of k-points (npk) =  40000
     Max angular momentum in pseudopotentials (lmaxx) =  4
     Message from routine volume:
     axis vectors are left-handed
     file Al.pbe-n-kjpaw_psl.1.0.0.UPF: wavefunction(s)  3S 3P renormalized
     file O.pbe-n-kjpaw_psl.1.0.0.UPF: wavefunction(s)  2S 2P renormalized
     Message from routine setup:
     using ibrav=0 with symmetry is DISCOURAGED, use correct ibrav instead

     R & G space division:  proc/nbgrp/npool/nimage =      22
     Subspace diagonalization in iterative solution of the eigenvalue problem:
     a serial algorithm will be used

     Using Slab Decomposition

     bravais-lattice index     =            0
     lattice parameter (alat)  =       5.6114  a.u.
     unit-cell volume          =    1288.9767 (a.u.)^3
     number of atoms/cell      =            4
     number of atomic types    =            2
     number of electrons       =        18.00
     number of Kohn-Sham states=           40
     kinetic-energy cutoff     =      60.0000  Ry
     charge density cutoff     =     240.0000  Ry
     scf convergence threshold =      1.0E-08
     mixing beta               =       0.5000
     number of iterations used =            8  plain     mixing
     Exchange-correlation= SLA  PW   PBX  PBC
                           (   1   4   3   4   0   0   0)

     celldm(1)=   5.611386  celldm(2)=   0.000000  celldm(3)=   0.000000
     celldm(4)=   0.000000  celldm(5)=   0.000000  celldm(6)=   0.000000

     crystal axes: (cart. coord. in units of alat)
               a(1) = (   0.865790   0.500407   0.000000 )
               a(2) = (   0.865790  -0.500407   0.000000 )
               a(3) = (   0.000000   0.000000   8.419160 )

     reciprocal axes: (cart. coord. in units 2 pi/alat)
               b(1) = (  0.577507  0.999187  0.000000 )
               b(2) = (  0.577507 -0.999187  0.000000 )
               b(3) = (  0.000000  0.000000  0.118777 )

     PseudoPot. # 1 for Al read from file:
     /home/mainadmin/research/danu/pseudo/Al.pbe-n-kjpaw_psl.1.0.0.UPF
     MD5 check sum: 502b6b27b9c6270cab5dd1084b96fa6d
     Pseudo is Projector augmented-wave + core cor, Zval =  3.0
     Generated using &quot;atomic&quot; code by A. Dal Corso  v.6.3
     Shape of augmentation charge: PSQ
     Using radial grid of 1135 points,  6 beta functions with:
                l(1) =   0
                l(2) =   0
                l(3) =   1
                l(4) =   1
                l(5) =   2
                l(6) =   2
     Q(r) pseudized with 0 coefficients

     PseudoPot. # 2 for O  read from file:
     /home/mainadmin/research/danu/pseudo/O.pbe-n-kjpaw_psl.1.0.0.UPF
     MD5 check sum: e99d9cef9b487d1ca56f5b95ecd0fd7a
     Pseudo is Projector augmented-wave + core cor, Zval =  6.0
     Generated using &quot;atomic&quot; code by A. Dal Corso  v.6.3
     Shape of augmentation charge: PSQ
     Using radial grid of 1095 points,  4 beta functions with:
                l(1) =   0
                l(2) =   0
                l(3) =   1
                l(4) =   1
     Q(r) pseudized with 0 coefficients

     atomic species   valence    mass     pseudopotential
        Al             3.00    26.98100     Al( 1.00)
        O              6.00    15.99900     O ( 1.00)

      2 Sym. Ops. (no inversion) found

                                    s                        frac. trans.

      isym =  1     identity

 cryst.   s( 1) = (     1          0          0      )
                  (     0          1          0      )
                  (     0          0          1      )

 cart.    s( 1) = (  1.0000000  0.0000000  0.0000000 )
                  (  0.0000000  1.0000000  0.0000000 )
                  (  0.0000000  0.0000000  1.0000000 )

      isym =  2     inv. 180 deg rotation - cart. axis [0,1,0]

 cryst.   s( 2) = (     0          1          0      )
                  (     1          0          0      )
                  (     0          0          1      )

 cart.    s( 2) = (  1.0000000  0.0000000  0.0000000 )
                  (  0.0000000 -1.0000000  0.0000000 )
                  (  0.0000000  0.0000000  1.0000000 )

   Cartesian axes

     site n.     atom                  positions (alat units)
         1           O   tau(   1) = (   1.1545548   0.0000000   3.5560643  )
         2           Al  tau(   2) = (   0.5770825   0.0000000   3.7791201  )
         3           Al  tau(   3) = (   0.5770294   0.0000000   4.6620761  )
         4           O   tau(   4) = (   1.1544952   0.0000000   4.8850991  )

   Crystallographic axes

     site n.     atom                  positions (cryst. coord.)
         1           O   tau(   1) = (  0.6667634  0.6667634  0.4223776  )
         2           Al  tau(   2) = (  0.3332692  0.3332692  0.4488714  )
         3           Al  tau(   3) = (  0.3332385  0.3332385  0.5537460  )
         4           O   tau(   4) = (  0.6667290  0.6667290  0.5802360  )

     number of k points=    49
                       cart. coord. in units 2pi/alat
        k(    1) = (   0.0000000   0.0000000   0.0000000), wk =   0.0118343
        k(    2) = (   0.0444236  -0.0768606   0.0000000), wk =   0.0473373
        k(    3) = (   0.0888472  -0.1537211   0.0000000), wk =   0.0473373
        k(    4) = (   0.1332708  -0.2305817   0.0000000), wk =   0.0473373
        k(    5) = (   0.1776944  -0.3074422   0.0000000), wk =   0.0473373
        k(    6) = (   0.2221181  -0.3843028   0.0000000), wk =   0.0473373
        k(    7) = (   0.2665417  -0.4611633   0.0000000), wk =   0.0473373
        k(    8) = (   0.0888472   0.0000000   0.0000000), wk =   0.0236686
        k(    9) = (   0.1332708  -0.0768606   0.0000000), wk =   0.0473373
        k(   10) = (   0.1776944  -0.1537211   0.0000000), wk =   0.0473373
        k(   11) = (   0.2221181  -0.2305817   0.0000000), wk =   0.0473373
        k(   12) = (   0.2665417  -0.3074422   0.0000000), wk =   0.0473373
        k(   13) = (   0.3109653  -0.3843028   0.0000000), wk =   0.0473373
        k(   14) = (  -0.2221181   0.5380239   0.0000000), wk =   0.0473373
        k(   15) = (  -0.1776944   0.4611633   0.0000000), wk =   0.0473373
        k(   16) = (  -0.1332708   0.3843028   0.0000000), wk =   0.0473373
        k(   17) = (  -0.0888472   0.3074422   0.0000000), wk =   0.0473373
        k(   18) = (  -0.0444236   0.2305817   0.0000000), wk =   0.0473373
        k(   19) = (   0.0000000   0.1537211   0.0000000), wk =   0.0236686
        k(   20) = (   0.1776944   0.0000000   0.0000000), wk =   0.0236686
        k(   21) = (   0.2221181  -0.0768606   0.0000000), wk =   0.0473373
        k(   22) = (   0.2665417  -0.1537211   0.0000000), wk =   0.0473373
        k(   23) = (   0.3109653  -0.2305817   0.0000000), wk =   0.0473373
        k(   24) = (   0.3553889  -0.3074422   0.0000000), wk =   0.0473373
        k(   25) = (  -0.1776944   0.6148844   0.0000000), wk =   0.0473373
        k(   26) = (  -0.1332708   0.5380239   0.0000000), wk =   0.0473373
        k(   27) = (  -0.0888472   0.4611633   0.0000000), wk =   0.0473373
        k(   28) = (  -0.0444236   0.3843028   0.0000000), wk =   0.0473373
        k(   29) = (   0.0000000   0.3074422   0.0000000), wk =   0.0236686
        k(   30) = (   0.2665417   0.0000000   0.0000000), wk =   0.0236686
        k(   31) = (   0.3109653  -0.0768606   0.0000000), wk =   0.0473373
        k(   32) = (   0.3553889  -0.1537211   0.0000000), wk =   0.0473373
        k(   33) = (   0.3998125  -0.2305817   0.0000000), wk =   0.0473373
        k(   34) = (  -0.1332708   0.6917450   0.0000000), wk =   0.0473373
        k(   35) = (  -0.0888472   0.6148844   0.0000000), wk =   0.0473373
        k(   36) = (  -0.0444236   0.5380239   0.0000000), wk =   0.0473373
        k(   37) = (   0.0000000   0.4611633   0.0000000), wk =   0.0236686
        k(   38) = (   0.3553889   0.0000000   0.0000000), wk =   0.0236686
        k(   39) = (   0.3998125  -0.0768606   0.0000000), wk =   0.0473373
        k(   40) = (   0.4442361  -0.1537211   0.0000000), wk =   0.0473373
        k(   41) = (  -0.0888472   0.7686056   0.0000000), wk =   0.0473373
        k(   42) = (  -0.0444236   0.6917450   0.0000000), wk =   0.0473373
        k(   43) = (   0.0000000   0.6148844   0.0000000), wk =   0.0236686
        k(   44) = (   0.4442361   0.0000000   0.0000000), wk =   0.0236686
        k(   45) = (   0.4886597  -0.0768606   0.0000000), wk =   0.0473373
        k(   46) = (  -0.0444236   0.8454661   0.0000000), wk =   0.0473373
        k(   47) = (   0.0000000   0.7686056   0.0000000), wk =   0.0236686
        k(   48) = (   0.5330833   0.0000000   0.0000000), wk =   0.0236686
        k(   49) = (   0.0000000   0.9223267   0.0000000), wk =   0.0236686

                       cryst. coord.
        k(    1) = (   0.0000000   0.0000000   0.0000000), wk =   0.0118343
        k(    2) = (   0.0000000   0.0769231   0.0000000), wk =   0.0473373
        k(    3) = (   0.0000000   0.1538462   0.0000000), wk =   0.0473373
        k(    4) = (   0.0000000   0.2307692   0.0000000), wk =   0.0473373
        k(    5) = (   0.0000000   0.3076923   0.0000000), wk =   0.0473373
        k(    6) = (   0.0000000   0.3846154   0.0000000), wk =   0.0473373
        k(    7) = (   0.0000000   0.4615385   0.0000000), wk =   0.0473373
        k(    8) = (   0.0769231   0.0769231   0.0000000), wk =   0.0236686
        k(    9) = (   0.0769231   0.1538462   0.0000000), wk =   0.0473373
        k(   10) = (   0.0769231   0.2307692   0.0000000), wk =   0.0473373
        k(   11) = (   0.0769231   0.3076923   0.0000000), wk =   0.0473373
        k(   12) = (   0.0769231   0.3846154   0.0000000), wk =   0.0473373
        k(   13) = (   0.0769231   0.4615385   0.0000000), wk =   0.0473373
        k(   14) = (   0.0769231  -0.4615385   0.0000000), wk =   0.0473373
        k(   15) = (   0.0769231  -0.3846154   0.0000000), wk =   0.0473373
        k(   16) = (   0.0769231  -0.3076923   0.0000000), wk =   0.0473373
        k(   17) = (   0.0769231  -0.2307692   0.0000000), wk =   0.0473373
        k(   18) = (   0.0769231  -0.1538462   0.0000000), wk =   0.0473373
        k(   19) = (   0.0769231  -0.0769231   0.0000000), wk =   0.0236686
        k(   20) = (   0.1538462   0.1538462   0.0000000), wk =   0.0236686
        k(   21) = (   0.1538462   0.2307692   0.0000000), wk =   0.0473373
        k(   22) = (   0.1538462   0.3076923   0.0000000), wk =   0.0473373
        k(   23) = (   0.1538462   0.3846154   0.0000000), wk =   0.0473373
        k(   24) = (   0.1538462   0.4615385   0.0000000), wk =   0.0473373
        k(   25) = (   0.1538462  -0.4615385   0.0000000), wk =   0.0473373
        k(   26) = (   0.1538462  -0.3846154   0.0000000), wk =   0.0473373
        k(   27) = (   0.1538462  -0.3076923   0.0000000), wk =   0.0473373
        k(   28) = (   0.1538462  -0.2307692   0.0000000), wk =   0.0473373
        k(   29) = (   0.1538462  -0.1538462   0.0000000), wk =   0.0236686
        k(   30) = (   0.2307692   0.2307692   0.0000000), wk =   0.0236686
        k(   31) = (   0.2307692   0.3076923   0.0000000), wk =   0.0473373
        k(   32) = (   0.2307692   0.3846154   0.0000000), wk =   0.0473373
        k(   33) = (   0.2307692   0.4615385   0.0000000), wk =   0.0473373
        k(   34) = (   0.2307692  -0.4615385   0.0000000), wk =   0.0473373
        k(   35) = (   0.2307692  -0.3846154   0.0000000), wk =   0.0473373
        k(   36) = (   0.2307692  -0.3076923   0.0000000), wk =   0.0473373
        k(   37) = (   0.2307692  -0.2307692   0.0000000), wk =   0.0236686
        k(   38) = (   0.3076923   0.3076923   0.0000000), wk =   0.0236686
        k(   39) = (   0.3076923   0.3846154   0.0000000), wk =   0.0473373
        k(   40) = (   0.3076923   0.4615385   0.0000000), wk =   0.0473373
        k(   41) = (   0.3076923  -0.4615385   0.0000000), wk =   0.0473373
        k(   42) = (   0.3076923  -0.3846154   0.0000000), wk =   0.0473373
        k(   43) = (   0.3076923  -0.3076923   0.0000000), wk =   0.0236686
        k(   44) = (   0.3846154   0.3846154   0.0000000), wk =   0.0236686
        k(   45) = (   0.3846154   0.4615385   0.0000000), wk =   0.0473373
        k(   46) = (   0.3846154  -0.4615385   0.0000000), wk =   0.0473373
        k(   47) = (   0.3846154  -0.3846154   0.0000000), wk =   0.0236686
        k(   48) = (   0.4615385   0.4615385   0.0000000), wk =   0.0236686
        k(   49) = (   0.4615385  -0.4615385   0.0000000), wk =   0.0236686

     Check: negative core charge=   -0.000003

     Initial potential from superposition of free atoms

     starting charge      17.9954, renormalised to      18.0000

     negative rho (up, down):  1.409E-03 0.000E+00
     Starting wfcs are   16 randomized atomic wfcs +   24 random wfcs
     Checking if some PAW data can be deallocated...

     Self-consistent Calculation

     iteration #  1     ecut=    60.00 Ry     beta= 0.50
     Davidson diagonalization with overlap

     ethr =  1.00E-02,  avg # of iterations =  8.9

     negative rho (up, down):  1.490E-03 0.000E+00

     total energy              =    -162.38791138 Ry
     estimated scf accuracy    <       0.90152773 Ry

[...]

     c_bands:  1 eigenvalues not converged
     ethr =  8.82E-05,  avg # of iterations =  8.5

[...]

     total energy              =    -162.71121928 Ry
     estimated scf accuracy    <       0.00000001 Ry

     iteration # 11     ecut=    60.00 Ry     beta= 0.50
     Davidson diagonalization with overlap

     ethr =  7.74E-11,  avg # of iterations =  4.2

     negative rho (up, down):  1.882E-03 0.000E+00

     End of self-consistent calculation

          k = 0.0000 0.0000 0.0000 (  9961 PWs)   bands (ev):

   -22.4278 -22.3634  -9.3487  -7.2413  -6.3900  -6.3822  -6.3693  -6.3615
    -4.2510  -0.1781   1.9806   2.7855   2.8121   3.4214   3.6940   4.6502
     5.2832   6.6552   6.6772   8.3297   8.6435   8.6636   9.2296   9.9897
    10.0109  11.1342  11.2440  12.1957  12.2221  13.1034  14.6562  15.6315
    15.6449  15.7944  16.0272  16.5204  16.5441  17.6838  18.9816  19.2900

     occupation numbers
     1.0000   1.0000   1.0000   1.0000   1.0000   1.0000   1.0000   1.0000
     1.0000   0.0000   0.0000   0.0000   0.0000   0.0000   0.0000   0.0000
     0.0000   0.0000   0.0000   0.0000   0.0000   0.0000   0.0000   0.0000
     0.0000   0.0000   0.0000   0.0000   0.0000   0.0000   0.0000   0.0000
     0.0000   0.0000   0.0000   0.0000   0.0000   0.0000   0.0000   0.0000

[...]

          k =-0.2221 0.5380 0.0000 ( 10126 PWs)   bands (ev):

[...]

          k =-0.0444 0.8455 0.0000 ( 10124 PWs)   bands (ev):

[...]

          k = 0.0000 0.9223 0.0000 ( 10129 PWs)   bands (ev):

   -21.5151 -21.4863 -10.0662  -9.8028  -7.2571  -7.1930  -6.6645  -6.0618
    -2.6268  -0.4740   2.8275   5.1681   5.2459   6.0796   6.7314   6.9807
     8.3157   8.3296   8.6036   8.7824   8.8848   9.2877   9.3451   9.8198
     9.9246  10.4420  10.4724  11.0280  11.3423  11.5070  12.0215  12.3247
    12.9742  13.5794  14.1531  14.3173  15.1386  15.4099  15.8213  16.4473

     occupation numbers
     1.0000   1.0000   1.0000   1.0000   1.0000   1.0000   1.0000   1.0000
     1.0000   0.0000   0.0000   0.0000   0.0000   0.0000   0.0000   0.0000
     0.0000   0.0000   0.0000   0.0000   0.0000   0.0000   0.0000   0.0000
     0.0000   0.0000   0.0000   0.0000   0.0000   0.0000   0.0000   0.0000
     0.0000   0.0000   0.0000   0.0000   0.0000   0.0000   0.0000   0.0000

     highest occupied, lowest unoccupied level (ev):    -1.9769   -0.4740

!    total energy              =    -162.71121930 Ry
     total all-electron energy =     -1272.690560 Ry
     estimated scf accuracy    <          1.1E-09 Ry

     The total energy is the sum of the following terms:
     one-electron contribution =    -682.23337913 Ry
     hartree contribution      =     346.45897368 Ry
     xc contribution           =     -20.37970631 Ry
     ewald contribution        =     281.96672436 Ry
     one-center paw contrib.   =     -88.52383190 Ry
      -> PAW hartree energy AE =      27.87727781 Ry
      -> PAW hartree energy PS =     -27.84350973 Ry
      -> PAW xc energy AE      =     -16.94003656 Ry
      -> PAW xc energy PS      =       7.32060124 Ry
      -> total E_H with PAW    =     346.49274176 Ry
      -> total E_XC with PAW   =     -29.99914164 Ry

     convergence has been achieved in  11 iterations

     Writing all to output data dir ./work/Al2O2.save/

     General routines

     Parallel routines

     PAW routines

   This run was terminated on:  22:16:42  19Jun2023

   JOB DONE.