     Program PWSCF v.7.1 starts on 22Jun2023 at 12:40: 1

     Waiting for input...
     Reading input from standard input

     Current dimensions of program PWSCF are:
     Max number of different atomic species (ntypx) = 10
     Max number of k-points (npk) =  40000
     Max angular momentum in pseudopotentials (lmaxx) =  4
     Message from routine volume:
     axis vectors are left-handed
     file Al.pbe-n-kjpaw_psl.1.0.0.UPF: wavefunction(s)  3S 3P renormalized
     file O.pbe-n-kjpaw_psl.1.0.0.UPF: wavefunction(s)  2S 2P renormalized

     IMPORTANT: XC functional enforced from input :
     Exchange-correlation= VDW-DF2-B86R
                           (   1   4  26   0   2   0   0)
     Any further DFT definition will be discarded
     Please, verify this is what you really want

     Message from routine setup:
     using ibrav=0 with symmetry is DISCOURAGED, use correct ibrav instead

     R & G space division:  proc/nbgrp/npool/nimage =      10
     Subspace diagonalization in iterative solution of the eigenvalue problem:
     a serial algorithm will be used

     Using Slab Decomposition

     bravais-lattice index     =            0
     lattice parameter (alat)  =       5.6077  a.u.
     unit-cell volume          =    1287.2819 (a.u.)^3
     number of atoms/cell      =            4
     number of atomic types    =            2
     number of electrons       =        18.00
     number of Kohn-Sham states=           30
     kinetic-energy cutoff     =      60.0000  Ry
     charge density cutoff     =     240.0000  Ry
     scf convergence threshold =      1.0E-08
     mixing beta               =       0.5000
     number of iterations used =            8  plain     mixing
     Exchange-correlation= VDW-DF2-B86R
                           (   1   4  26   0   2   0   0)

     celldm(1)=   5.607660  celldm(2)=   0.000000  celldm(3)=   0.000000
     celldm(4)=   0.000000  celldm(5)=   0.000000  celldm(6)=   0.000000

     crystal axes: (cart. coord. in units of alat)
               a(1) = (   0.865785   0.500416   0.000000 )
               a(2) = (   0.865785  -0.500416   0.000000 )
               a(3) = (   0.000000   0.000000   8.424753 )

     reciprocal axes: (cart. coord. in units 2 pi/alat)
               b(1) = (  0.577511  0.999168  0.000000 )
               b(2) = (  0.577511 -0.999168  0.000000 )
               b(3) = (  0.000000  0.000000  0.118698 )

     PseudoPot. # 1 for Al read from file:
     /home/mainadmin/research/danu/pseudo/Al.pbe-n-kjpaw_psl.1.0.0.UPF
     MD5 check sum: 502b6b27b9c6270cab5dd1084b96fa6d
     Pseudo is Projector augmented-wave + core cor, Zval =  3.0
     Generated using &quot;atomic&quot; code by A. Dal Corso  v.6.3
     Shape of augmentation charge: PSQ
     Using radial grid of 1135 points,  6 beta functions with:
                l(1) =   0
                l(2) =   0
                l(3) =   1
                l(4) =   1
                l(5) =   2
                l(6) =   2
     Q(r) pseudized with 0 coefficients

     PseudoPot. # 2 for O  read from file:
     /home/mainadmin/research/danu/pseudo/O.pbe-n-kjpaw_psl.1.0.0.UPF
     MD5 check sum: e99d9cef9b487d1ca56f5b95ecd0fd7a
     Pseudo is Projector augmented-wave + core cor, Zval =  6.0
     Generated using &quot;atomic&quot; code by A. Dal Corso  v.6.3
     Shape of augmentation charge: PSQ
     Using radial grid of 1095 points,  4 beta functions with:
                l(1) =   0
                l(2) =   0
                l(3) =   1
                l(4) =   1
     Q(r) pseudized with 0 coefficients

     atomic species   valence    mass     pseudopotential
        Al             3.00    26.98100     Al( 1.00)
        O              6.00    15.99900     O ( 1.00)

      2 Sym. Ops. (no inversion) found

                                    s                        frac. trans.

      isym =  1     identity

 cryst.   s( 1) = (     1          0          0      )
                  (     0          1          0      )
                  (     0          0          1      )

 cart.    s( 1) = (  1.0000000  0.0000000  0.0000000 )
                  (  0.0000000  1.0000000  0.0000000 )
                  (  0.0000000  0.0000000  1.0000000 )

      isym =  2     inv. 180 deg rotation - cart. axis [0,1,0]

 cryst.   s( 2) = (     0          1          0      )
                  (     1          0          0      )
                  (     0          0          1      )

 cart.    s( 2) = (  1.0000000  0.0000000  0.0000000 )
                  (  0.0000000 -1.0000000  0.0000000 )
                  (  0.0000000  0.0000000  1.0000000 )

   Cartesian axes

     site n.     atom                  positions (alat units)
         1           O   tau(   1) = (   1.1545543   0.0000000   3.5627092  )
         2           Al  tau(   2) = (   0.5770722   0.0000000   3.7830565  )
         3           Al  tau(   3) = (   0.5770183   0.0000000   4.6637429  )
         4           O   tau(   4) = (   1.1544952   0.0000000   4.8840673  )

   Crystallographic axes

     site n.     atom                  positions (cryst. coord.)
         1           O   tau(   1) = (  0.6667673  0.6667673  0.4228859  )
         2           Al  tau(   2) = (  0.3332653  0.3332653  0.4490406  )
         3           Al  tau(   3) = (  0.3332342  0.3332342  0.5535762  )
         4           O   tau(   4) = (  0.6667332  0.6667332  0.5797282  )

     number of k points=    49
                       cart. coord. in units 2pi/alat
        k(    1) = (   0.0000000   0.0000000   0.0000000), wk =   0.0118343
        k(    2) = (   0.0444239  -0.0768591   0.0000000), wk =   0.0473373
        k(    3) = (   0.0888478  -0.1537182   0.0000000), wk =   0.0473373
        k(    4) = (   0.1332717  -0.2305773   0.0000000), wk =   0.0473373
        k(    5) = (   0.1776956  -0.3074364   0.0000000), wk =   0.0473373
        k(    6) = (   0.2221195  -0.3842955   0.0000000), wk =   0.0473373
        k(    7) = (   0.2665433  -0.4611546   0.0000000), wk =   0.0473373
        k(    8) = (   0.0888478   0.0000000   0.0000000), wk =   0.0236686
        k(    9) = (   0.1332717  -0.0768591   0.0000000), wk =   0.0473373
        k(   10) = (   0.1776956  -0.1537182   0.0000000), wk =   0.0473373
        k(   11) = (   0.2221195  -0.2305773   0.0000000), wk =   0.0473373
        k(   12) = (   0.2665433  -0.3074364   0.0000000), wk =   0.0473373
        k(   13) = (   0.3109672  -0.3842955   0.0000000), wk =   0.0473373
        k(   14) = (  -0.2221195   0.5380137   0.0000000), wk =   0.0473373
        k(   15) = (  -0.1776956   0.4611546   0.0000000), wk =   0.0473373
        k(   16) = (  -0.1332717   0.3842955   0.0000000), wk =   0.0473373
        k(   17) = (  -0.0888478   0.3074364   0.0000000), wk =   0.0473373
        k(   18) = (  -0.0444239   0.2305773   0.0000000), wk =   0.0473373
        k(   19) = (   0.0000000   0.1537182   0.0000000), wk =   0.0236686
        k(   20) = (   0.1776956   0.0000000   0.0000000), wk =   0.0236686
        k(   21) = (   0.2221195  -0.0768591   0.0000000), wk =   0.0473373
        k(   22) = (   0.2665433  -0.1537182   0.0000000), wk =   0.0473373
        k(   23) = (   0.3109672  -0.2305773   0.0000000), wk =   0.0473373
        k(   24) = (   0.3553911  -0.3074364   0.0000000), wk =   0.0473373
        k(   25) = (  -0.1776956   0.6148728   0.0000000), wk =   0.0473373
        k(   26) = (  -0.1332717   0.5380137   0.0000000), wk =   0.0473373
        k(   27) = (  -0.0888478   0.4611546   0.0000000), wk =   0.0473373
        k(   28) = (  -0.0444239   0.3842955   0.0000000), wk =   0.0473373
        k(   29) = (   0.0000000   0.3074364   0.0000000), wk =   0.0236686
        k(   30) = (   0.2665433   0.0000000   0.0000000), wk =   0.0236686
        k(   31) = (   0.3109672  -0.0768591   0.0000000), wk =   0.0473373
        k(   32) = (   0.3553911  -0.1537182   0.0000000), wk =   0.0473373
        k(   33) = (   0.3998150  -0.2305773   0.0000000), wk =   0.0473373
        k(   34) = (  -0.1332717   0.6917319   0.0000000), wk =   0.0473373
        k(   35) = (  -0.0888478   0.6148728   0.0000000), wk =   0.0473373
        k(   36) = (  -0.0444239   0.5380137   0.0000000), wk =   0.0473373
        k(   37) = (   0.0000000   0.4611546   0.0000000), wk =   0.0236686
        k(   38) = (   0.3553911   0.0000000   0.0000000), wk =   0.0236686
        k(   39) = (   0.3998150  -0.0768591   0.0000000), wk =   0.0473373
        k(   40) = (   0.4442389  -0.1537182   0.0000000), wk =   0.0473373
        k(   41) = (  -0.0888478   0.7685911   0.0000000), wk =   0.0473373
        k(   42) = (  -0.0444239   0.6917319   0.0000000), wk =   0.0473373
        k(   43) = (   0.0000000   0.6148728   0.0000000), wk =   0.0236686
        k(   44) = (   0.4442389   0.0000000   0.0000000), wk =   0.0236686
        k(   45) = (   0.4886628  -0.0768591   0.0000000), wk =   0.0473373
        k(   46) = (  -0.0444239   0.8454502   0.0000000), wk =   0.0473373
        k(   47) = (   0.0000000   0.7685911   0.0000000), wk =   0.0236686
        k(   48) = (   0.5330867   0.0000000   0.0000000), wk =   0.0236686
        k(   49) = (   0.0000000   0.9223093   0.0000000), wk =   0.0236686

                       cryst. coord.
        k(    1) = (   0.0000000   0.0000000   0.0000000), wk =   0.0118343
        k(    2) = (  -0.0000000   0.0769231   0.0000000), wk =   0.0473373
        k(    3) = (  -0.0000000   0.1538462   0.0000000), wk =   0.0473373
        k(    4) = (  -0.0000000   0.2307692   0.0000000), wk =   0.0473373
        k(    5) = (  -0.0000000   0.3076923   0.0000000), wk =   0.0473373
        k(    6) = (  -0.0000000   0.3846154   0.0000000), wk =   0.0473373
        k(    7) = (  -0.0000000   0.4615385   0.0000000), wk =   0.0473373
        k(    8) = (   0.0769231   0.0769231   0.0000000), wk =   0.0236686
        k(    9) = (   0.0769231   0.1538462   0.0000000), wk =   0.0473373
        k(   10) = (   0.0769231   0.2307692   0.0000000), wk =   0.0473373
        k(   11) = (   0.0769231   0.3076923   0.0000000), wk =   0.0473373
        k(   12) = (   0.0769231   0.3846154   0.0000000), wk =   0.0473373
        k(   13) = (   0.0769231   0.4615385   0.0000000), wk =   0.0473373
        k(   14) = (   0.0769231  -0.4615385   0.0000000), wk =   0.0473373
        k(   15) = (   0.0769231  -0.3846154   0.0000000), wk =   0.0473373
        k(   16) = (   0.0769231  -0.3076923   0.0000000), wk =   0.0473373
        k(   17) = (   0.0769231  -0.2307692   0.0000000), wk =   0.0473373
        k(   18) = (   0.0769231  -0.1538462   0.0000000), wk =   0.0473373
        k(   19) = (   0.0769231  -0.0769231   0.0000000), wk =   0.0236686
        k(   20) = (   0.1538462   0.1538462   0.0000000), wk =   0.0236686
        k(   21) = (   0.1538462   0.2307692   0.0000000), wk =   0.0473373
        k(   22) = (   0.1538462   0.3076923   0.0000000), wk =   0.0473373
        k(   23) = (   0.1538462   0.3846154   0.0000000), wk =   0.0473373
        k(   24) = (   0.1538462   0.4615385   0.0000000), wk =   0.0473373
        k(   25) = (   0.1538462  -0.4615385   0.0000000), wk =   0.0473373
        k(   26) = (   0.1538462  -0.3846154   0.0000000), wk =   0.0473373
        k(   27) = (   0.1538462  -0.3076923   0.0000000), wk =   0.0473373
        k(   28) = (   0.1538462  -0.2307692   0.0000000), wk =   0.0473373
        k(   29) = (   0.1538462  -0.1538462   0.0000000), wk =   0.0236686
        k(   30) = (   0.2307692   0.2307692   0.0000000), wk =   0.0236686
        k(   31) = (   0.2307692   0.3076923   0.0000000), wk =   0.0473373
        k(   32) = (   0.2307692   0.3846154   0.0000000), wk =   0.0473373
        k(   33) = (   0.2307692   0.4615385   0.0000000), wk =   0.0473373
        k(   34) = (   0.2307692  -0.4615385   0.0000000), wk =   0.0473373
        k(   35) = (   0.2307692  -0.3846154   0.0000000), wk =   0.0473373
        k(   36) = (   0.2307692  -0.3076923   0.0000000), wk =   0.0473373
        k(   37) = (   0.2307692  -0.2307692   0.0000000), wk =   0.0236686
        k(   38) = (   0.3076923   0.3076923   0.0000000), wk =   0.0236686
        k(   39) = (   0.3076923   0.3846154   0.0000000), wk =   0.0473373
        k(   40) = (   0.3076923   0.4615385   0.0000000), wk =   0.0473373
        k(   41) = (   0.3076923  -0.4615385   0.0000000), wk =   0.0473373
        k(   42) = (   0.3076923  -0.3846154   0.0000000), wk =   0.0473373
        k(   43) = (   0.3076923  -0.3076923   0.0000000), wk =   0.0236686
        k(   44) = (   0.3846154   0.3846154   0.0000000), wk =   0.0236686
        k(   45) = (   0.3846154   0.4615385   0.0000000), wk =   0.0473373
        k(   46) = (   0.3846154  -0.4615385   0.0000000), wk =   0.0473373
        k(   47) = (   0.3846154  -0.3846154   0.0000000), wk =   0.0236686
        k(   48) = (   0.4615385   0.4615385   0.0000000), wk =   0.0236686
        k(   49) = (   0.4615385  -0.4615385   0.0000000), wk =   0.0236686

     Check: negative core charge=   -0.000003

     Initial potential from superposition of free atoms

     starting charge      17.9954, renormalised to      18.0000

     negative rho (up, down):  1.352E-03 0.000E+00

     %%%%%%%%%%%%%%%%%%%%%%%%%%%%%%%%%%%%%%%%%%%%%%%%%%%%%%%%%%%%%%%%%%%%%%%%
     %                                                                      %
     % You are using vdW-DF, which was implemented by the Thonhauser group. %
     % Please cite the following two papers that made this development      %
     % possible and the two reviews that describe the various versions:     %
     %                                                                      %
     %   T. Thonhauser et al., PRL 115, 136402 (2015).                      %
     %   T. Thonhauser et al., PRB 76, 125112 (2007).                       %
     %   K. Berland et al., Rep. Prog. Phys. 78, 066501 (2015).             %
     %   D.C. Langreth et al., J. Phys.: Condens. Matter 21, 084203 (2009). %
     %                                                                      %
     % If you are calculating stress with vdW-DF, please also cite:         %
     %                                                                      %
     %   R. Sabatini et al., J. Phys.: Condens. Matter 24, 424209 (2012).   %
     %                                                                      %
     %%%%%%%%%%%%%%%%%%%%%%%%%%%%%%%%%%%%%%%%%%%%%%%%%%%%%%%%%%%%%%%%%%%%%%%%

     %%%%%%%%%%%%%%%%%%%%%%%%%%%%%%%%%%%%%%%%%%%%%%%%%%%%%%%%%%%%%%%%%%%%%%%%
     %                                                                      %
     %  vdW-DF NEWS:                                                        %
     %                                                                      %
     %  * vdW-DF3 is now available. DOI: 10.1021/acs.jctc.0c00471           %
     %    use with input_dft = 'vdW-DF3-opt1' or 'vdW-DF3-opt2'             %
     %                                                                      %
     %  * Unscreened and range-separated vdW-DF hybrid functionals          %
     %    DOI: 10.1063/1.4986522 and 10.1088/1361-648X/ac2ad2               %
     %    use with input_dft = 'vdW-DF-cx0' (etc) and 'vdW-DF-ahcx'         %
     %                                                                      %
     %%%%%%%%%%%%%%%%%%%%%%%%%%%%%%%%%%%%%%%%%%%%%%%%%%%%%%%%%%%%%%%%%%%%%%%%

     Carrying out vdW-DF run using the following parameters:
     Nqs    =  20  Npoints =  1024  r_max =  100.000
     q_mesh =  0.00001000  0.04494208  0.09755937  0.15916263
               0.23128650  0.31572767  0.41458969  0.53033537
               0.66584808  0.82450364  1.01025438  1.22772762
               1.48234092  1.78043706  2.12944203  2.53805004
               3.01644009  3.57652955  4.23227104  5.00000000

     Non-local corr. energy    =       0.21856903 Ry

     Starting wfcs are   16 randomized atomic wfcs +   14 random wfcs
     Checking if some PAW data can be deallocated...

     Self-consistent Calculation

     iteration #  1     ecut=    60.00 Ry     beta= 0.50
     Davidson diagonalization with overlap

     ethr =  1.00E-02,  avg # of iterations =  8.2

[...]

     total energy              =    -161.92032546 Ry
     estimated scf accuracy    <       0.95023900 Ry

[...]

     total energy              =    -162.27325407 Ry
     estimated scf accuracy    <       0.00000007 Ry

     iteration # 11     ecut=    60.00 Ry     beta= 0.50
     Davidson diagonalization with overlap

     ethr =  4.16E-10,  avg # of iterations =  4.3

     negative rho (up, down):  1.792E-03 0.000E+00

     Non-local corr. energy    =       0.24052253 Ry

     End of self-consistent calculation

          k = 0.0000 0.0000 0.0000 (  9961 PWs)   bands (ev):

   -22.5325 -22.4651  -9.4754  -7.4119  -6.5955  -6.5874  -6.5742  -6.5662
    -4.4158  -0.2909   1.6599   2.4341   2.6960   3.2186   3.4712   4.4270
     5.0731   6.4420   6.5267   8.1205   8.4962   8.5165   9.0006   9.8600
     9.8814  11.0002  11.0045  12.0993  12.1262  12.8894

     occupation numbers
     1.0000   1.0000   1.0000   1.0000   1.0000   1.0000   1.0000   1.0000
     1.0000   0.0000   0.0000   0.0000   0.0000   0.0000   0.0000   0.0000
     0.0000   0.0000   0.0000   0.0000   0.0000   0.0000   0.0000   0.0000
     0.0000   0.0000   0.0000   0.0000   0.0000   0.0000

[...]

          k =-0.2221 0.5380 0.0000 ( 10118 PWs)   bands (ev):

[...]

          k =-0.0444 0.8455 0.0000 ( 10114 PWs)   bands (ev):

[...]

          k = 0.0000 0.9223 0.0000 ( 10112 PWs)   bands (ev):

   -21.6099 -21.5795 -10.2477  -9.9833  -7.4547  -7.3912  -6.8350  -6.2381
    -2.7676  -0.5471   2.7622   5.1000   5.1628   5.8724   6.3325   6.5778
     7.8946   7.9702   8.4807   8.6508   8.6883   9.1171   9.1336   9.6232
     9.7579  10.2753  10.2801  10.8946  11.1531  11.4015

     occupation numbers
     1.0000   1.0000   1.0000   1.0000   1.0000   1.0000   1.0000   1.0000
     1.0000   0.0000   0.0000   0.0000   0.0000   0.0000   0.0000   0.0000
     0.0000   0.0000   0.0000   0.0000   0.0000   0.0000   0.0000   0.0000
     0.0000   0.0000   0.0000   0.0000   0.0000   0.0000

     highest occupied, lowest unoccupied level (ev):    -2.1346   -0.5471

!    total energy              =    -162.27325413 Ry
     total all-electron energy =     -1272.252595 Ry
     estimated scf accuracy    <          2.8E-09 Ry

     The total energy is the sum of the following terms:
     one-electron contribution =    -685.23238926 Ry
     hartree contribution      =     347.91847662 Ry
     xc contribution           =     -20.49018107 Ry
     ewald contribution        =     283.53156309 Ry
     one-center paw contrib.   =     -88.00072352 Ry
      -> PAW hartree energy AE =      27.61259632 Ry
      -> PAW hartree energy PS =     -27.57875859 Ry
      -> PAW xc energy AE      =     -16.90599476 Ry
      -> PAW xc energy PS      =       7.39201649 Ry
      -> total E_H with PAW    =     347.95231436 Ry
      -> total E_XC with PAW   =     -30.00415934 Ry

     convergence has been achieved in  11 iterations

     Writing all to output data dir ./work/Al2O2.save/

     General routines

     Parallel routines

     PAW routines

   This run was terminated on:  12:40:37  22Jun2023

   JOB DONE.