     Program PWSCF v.7.0 starts on 22Jun2023 at 12:52:13

     R & G space division:  proc/nbgrp/npool/nimage =      10

     Waiting for input...
     Reading input from standard input

     Current dimensions of program PWSCF are:
     Max number of different atomic species (ntypx) = 10
     Max number of k-points (npk) =  40000
     Max angular momentum in pseudopotentials (lmaxx) =  4
     Message from routine volume:
     axis vectors are left-handed
     file Al.pbe-n-kjpaw_psl.1.0.0.UPF: wavefunction(s)  3S 3P renormalized
     file S.pbe-n-kjpaw_psl.1.0.0.UPF: wavefunction(s)  3S 3P renormalized
     Message from routine setup:
     using ibrav=0 with symmetry is DISCOURAGED, use correct ibrav instead

     Subspace diagonalization in iterative solution of the eigenvalue problem:
     a serial algorithm will be used

     Using Slab Decomposition

     bravais-lattice index     =            0
     lattice parameter (alat)  =       6.7653  a.u.
     unit-cell volume          =    1874.8147 (a.u.)^3
     number of atoms/cell      =            4
     number of atomic types    =            2
     number of electrons       =        18.00
     number of Kohn-Sham states=           20
     kinetic-energy cutoff     =      60.0000  Ry
     charge density cutoff     =     240.0000  Ry
     scf convergence threshold =      1.0E-08
     mixing beta               =       0.5000
     number of iterations used =            8  plain     mixing
     Exchange-correlation= SLA  PW   PBX  PBC
                           (   1   4   3   4   0   0   0)

     celldm(1)=   6.765337  celldm(2)=   0.000000  celldm(3)=   0.000000
     celldm(4)=   0.000000  celldm(5)=   0.000000  celldm(6)=   0.000000

     crystal axes: (cart. coord. in units of alat)
               a(1) = (   0.865515   0.500882   0.000000 )
               a(2) = (   0.865515  -0.500882   0.000000 )
               a(3) = (   0.000000   0.000000   6.983119 )

     reciprocal axes: (cart. coord. in units 2 pi/alat)
               b(1) = (  0.577691  0.998238  0.000000 )
               b(2) = (  0.577691 -0.998238  0.000000 )
               b(3) = (  0.000000  0.000000  0.143202 )

     PseudoPot. # 1 for Al read from file:
     /home/mainadmin/research/danu/pseudo/Al.pbe-n-kjpaw_psl.1.0.0.UPF
     MD5 check sum: 502b6b27b9c6270cab5dd1084b96fa6d
     Pseudo is Projector augmented-wave + core cor, Zval =  3.0
     Generated using &quot;atomic&quot; code by A. Dal Corso  v.6.3
     Shape of augmentation charge: PSQ
     Using radial grid of 1135 points,  6 beta functions with:
                l(1) =   0
                l(2) =   0
                l(3) =   1
                l(4) =   1
                l(5) =   2
                l(6) =   2
     Q(r) pseudized with 0 coefficients

     PseudoPot. # 2 for S  read from file:
     /home/mainadmin/research/danu/pseudo/S.pbe-n-kjpaw_psl.1.0.0.UPF
     MD5 check sum: fb45dfebcf3e72a4e1bd4a866ec2e262
     Pseudo is Projector augmented-wave + core cor, Zval =  6.0
     Generated using &quot;atomic&quot; code by A. Dal Corso  v.6.3
     Shape of augmentation charge: PSQ
     Using radial grid of 1151 points,  6 beta functions with:
                l(1) =   0
                l(2) =   0
                l(3) =   1
                l(4) =   1
                l(5) =   2
                l(6) =   2
     Q(r) pseudized with 0 coefficients

     atomic species   valence    mass     pseudopotential
        Al             3.00    26.98100     Al( 1.00)
        S              6.00    32.06500     S ( 1.00)

      2 Sym. Ops. (no inversion) found

                                    s                        frac. trans.

      isym =  1     identity

 cryst.   s( 1) = (     1          0          0      )
                  (     0          1          0      )
                  (     0          0          1      )

 cart.    s( 1) = (  1.0000000  0.0000000  0.0000000 )
                  (  0.0000000  1.0000000  0.0000000 )
                  (  0.0000000  0.0000000  1.0000000 )

      isym =  2     inv. 180 deg rotation - cart. axis [0,1,0]

 cryst.   s( 2) = (     0          1          0      )
                  (     1          0          0      )
                  (     0          0          1      )

 cart.    s( 2) = (  1.0000000  0.0000000  0.0000000 )
                  (  0.0000000 -1.0000000  0.0000000 )
                  (  0.0000000  0.0000000  1.0000000 )

   Cartesian axes

     site n.     atom                  positions (alat units)
         1           S   tau(   1) = (   1.1540890   0.0000000   2.8398609  )
         2           Al  tau(   2) = (   0.5770117   0.0000000   3.1380690  )
         3           Al  tau(   3) = (   0.5767956   0.0000000   3.8632972  )
         4           S   tau(   4) = (   1.1541649   0.0000000   4.1615395  )

   Crystallographic axes

     site n.     atom                  positions (cryst. coord.)
         1           S   tau(   1) = (  0.6667063  0.6667063  0.4066751  )
         2           Al  tau(   2) = (  0.3333342  0.3333342  0.4493793  )
         3           Al  tau(   3) = (  0.3332094  0.3332094  0.5532338  )
         4           S   tau(   4) = (  0.6667501  0.6667501  0.5959428  )

     number of k points=    49
                       cart. coord. in units 2pi/alat
        k(    1) = (   0.0000000   0.0000000   0.0000000), wk =   0.0118343
        k(    2) = (   0.0444377  -0.0767875   0.0000000), wk =   0.0473373
        k(    3) = (   0.0888755  -0.1535751   0.0000000), wk =   0.0473373
        k(    4) = (   0.1333132  -0.2303626   0.0000000), wk =   0.0473373
        k(    5) = (   0.1777509  -0.3071502   0.0000000), wk =   0.0473373
        k(    6) = (   0.2221887  -0.3839377   0.0000000), wk =   0.0473373
        k(    7) = (   0.2666264  -0.4607253   0.0000000), wk =   0.0473373
        k(    8) = (   0.0888755   0.0000000   0.0000000), wk =   0.0236686
        k(    9) = (   0.1333132  -0.0767875   0.0000000), wk =   0.0473373
        k(   10) = (   0.1777509  -0.1535751   0.0000000), wk =   0.0473373
        k(   11) = (   0.2221887  -0.2303626   0.0000000), wk =   0.0473373
        k(   12) = (   0.2666264  -0.3071502   0.0000000), wk =   0.0473373
        k(   13) = (   0.3110641  -0.3839377   0.0000000), wk =   0.0473373
        k(   14) = (  -0.2221887   0.5375128   0.0000000), wk =   0.0473373
        k(   15) = (  -0.1777509   0.4607253   0.0000000), wk =   0.0473373
        k(   16) = (  -0.1333132   0.3839377   0.0000000), wk =   0.0473373
        k(   17) = (  -0.0888755   0.3071502   0.0000000), wk =   0.0473373
        k(   18) = (  -0.0444377   0.2303626   0.0000000), wk =   0.0473373
        k(   19) = (   0.0000000   0.1535751   0.0000000), wk =   0.0236686
        k(   20) = (   0.1777509   0.0000000   0.0000000), wk =   0.0236686
        k(   21) = (   0.2221887  -0.0767875   0.0000000), wk =   0.0473373
        k(   22) = (   0.2666264  -0.1535751   0.0000000), wk =   0.0473373
        k(   23) = (   0.3110641  -0.2303626   0.0000000), wk =   0.0473373
        k(   24) = (   0.3555019  -0.3071502   0.0000000), wk =   0.0473373
        k(   25) = (  -0.1777509   0.6143004   0.0000000), wk =   0.0473373
        k(   26) = (  -0.1333132   0.5375128   0.0000000), wk =   0.0473373
        k(   27) = (  -0.0888755   0.4607253   0.0000000), wk =   0.0473373
        k(   28) = (  -0.0444377   0.3839377   0.0000000), wk =   0.0473373
        k(   29) = (   0.0000000   0.3071502   0.0000000), wk =   0.0236686
        k(   30) = (   0.2666264   0.0000000   0.0000000), wk =   0.0236686
        k(   31) = (   0.3110641  -0.0767875   0.0000000), wk =   0.0473373
        k(   32) = (   0.3555019  -0.1535751   0.0000000), wk =   0.0473373
        k(   33) = (   0.3999396  -0.2303626   0.0000000), wk =   0.0473373
        k(   34) = (  -0.1333132   0.6910879   0.0000000), wk =   0.0473373
        k(   35) = (  -0.0888755   0.6143004   0.0000000), wk =   0.0473373
        k(   36) = (  -0.0444377   0.5375128   0.0000000), wk =   0.0473373
        k(   37) = (   0.0000000   0.4607253   0.0000000), wk =   0.0236686
        k(   38) = (   0.3555019   0.0000000   0.0000000), wk =   0.0236686
        k(   39) = (   0.3999396  -0.0767875   0.0000000), wk =   0.0473373
        k(   40) = (   0.4443773  -0.1535751   0.0000000), wk =   0.0473373
        k(   41) = (  -0.0888755   0.7678755   0.0000000), wk =   0.0473373
        k(   42) = (  -0.0444377   0.6910879   0.0000000), wk =   0.0473373
        k(   43) = (   0.0000000   0.6143004   0.0000000), wk =   0.0236686
        k(   44) = (   0.4443773   0.0000000   0.0000000), wk =   0.0236686
        k(   45) = (   0.4888151  -0.0767875   0.0000000), wk =   0.0473373
        k(   46) = (  -0.0444377   0.8446630   0.0000000), wk =   0.0473373
        k(   47) = (   0.0000000   0.7678755   0.0000000), wk =   0.0236686
        k(   48) = (   0.5332528   0.0000000   0.0000000), wk =   0.0236686
        k(   49) = (   0.0000000   0.9214506   0.0000000), wk =   0.0236686

                       cryst. coord.
        k(    1) = (   0.0000000   0.0000000   0.0000000), wk =   0.0118343
        k(    2) = (   0.0000000   0.0769231   0.0000000), wk =   0.0473373
        k(    3) = (   0.0000000   0.1538462   0.0000000), wk =   0.0473373
        k(    4) = (   0.0000000   0.2307692   0.0000000), wk =   0.0473373
        k(    5) = (   0.0000000   0.3076923   0.0000000), wk =   0.0473373
        k(    6) = (   0.0000000   0.3846154   0.0000000), wk =   0.0473373
        k(    7) = (   0.0000000   0.4615385   0.0000000), wk =   0.0473373
        k(    8) = (   0.0769231   0.0769231   0.0000000), wk =   0.0236686
        k(    9) = (   0.0769231   0.1538462   0.0000000), wk =   0.0473373
        k(   10) = (   0.0769231   0.2307692   0.0000000), wk =   0.0473373
        k(   11) = (   0.0769231   0.3076923   0.0000000), wk =   0.0473373
        k(   12) = (   0.0769231   0.3846154   0.0000000), wk =   0.0473373
        k(   13) = (   0.0769231   0.4615385   0.0000000), wk =   0.0473373
        k(   14) = (   0.0769231  -0.4615385   0.0000000), wk =   0.0473373
        k(   15) = (   0.0769231  -0.3846154   0.0000000), wk =   0.0473373
        k(   16) = (   0.0769231  -0.3076923   0.0000000), wk =   0.0473373
        k(   17) = (   0.0769231  -0.2307692   0.0000000), wk =   0.0473373
        k(   18) = (   0.0769231  -0.1538462   0.0000000), wk =   0.0473373
        k(   19) = (   0.0769231  -0.0769231   0.0000000), wk =   0.0236686
        k(   20) = (   0.1538462   0.1538462   0.0000000), wk =   0.0236686
        k(   21) = (   0.1538462   0.2307692   0.0000000), wk =   0.0473373
        k(   22) = (   0.1538462   0.3076923   0.0000000), wk =   0.0473373
        k(   23) = (   0.1538462   0.3846154   0.0000000), wk =   0.0473373
        k(   24) = (   0.1538462   0.4615385   0.0000000), wk =   0.0473373
        k(   25) = (   0.1538462  -0.4615385   0.0000000), wk =   0.0473373
        k(   26) = (   0.1538462  -0.3846154   0.0000000), wk =   0.0473373
        k(   27) = (   0.1538462  -0.3076923   0.0000000), wk =   0.0473373
        k(   28) = (   0.1538462  -0.2307692   0.0000000), wk =   0.0473373
        k(   29) = (   0.1538462  -0.1538462   0.0000000), wk =   0.0236686
        k(   30) = (   0.2307692   0.2307692   0.0000000), wk =   0.0236686
        k(   31) = (   0.2307692   0.3076923   0.0000000), wk =   0.0473373
        k(   32) = (   0.2307692   0.3846154   0.0000000), wk =   0.0473373
        k(   33) = (   0.2307692   0.4615385   0.0000000), wk =   0.0473373
        k(   34) = (   0.2307692  -0.4615385   0.0000000), wk =   0.0473373
        k(   35) = (   0.2307692  -0.3846154   0.0000000), wk =   0.0473373
        k(   36) = (   0.2307692  -0.3076923   0.0000000), wk =   0.0473373
        k(   37) = (   0.2307692  -0.2307692   0.0000000), wk =   0.0236686
        k(   38) = (   0.3076923   0.3076923   0.0000000), wk =   0.0236686
        k(   39) = (   0.3076923   0.3846154   0.0000000), wk =   0.0473373
        k(   40) = (   0.3076923   0.4615385   0.0000000), wk =   0.0473373
        k(   41) = (   0.3076923  -0.4615385   0.0000000), wk =   0.0473373
        k(   42) = (   0.3076923  -0.3846154   0.0000000), wk =   0.0473373
        k(   43) = (   0.3076923  -0.3076923   0.0000000), wk =   0.0236686
        k(   44) = (   0.3846154   0.3846154   0.0000000), wk =   0.0236686
        k(   45) = (   0.3846154   0.4615385   0.0000000), wk =   0.0473373
        k(   46) = (   0.3846154  -0.4615385   0.0000000), wk =   0.0473373
        k(   47) = (   0.3846154  -0.3846154   0.0000000), wk =   0.0236686
        k(   48) = (   0.4615385   0.4615385   0.0000000), wk =   0.0236686
        k(   49) = (   0.4615385  -0.4615385   0.0000000), wk =   0.0236686

     Initial potential from superposition of free atoms

     starting charge      17.9954, renormalised to      18.0000

     negative rho (up, down):  2.368E-04 0.000E+00
     Starting wfcs are   16 randomized atomic wfcs +    4 random wfcs
     Checking if some PAW data can be deallocated...

     Self-consistent Calculation

     iteration #  1     ecut=    60.00 Ry     beta= 0.50
     Davidson diagonalization with overlap

     ethr =  1.00E-02,  avg # of iterations =  9.1

     Threshold (ethr) on eigenvalues was too large:
     Diagonalizing with lowered threshold

     Davidson diagonalization with overlap

[...]

     negative rho (up, down):  2.112E-04 0.000E+00

     total energy              =    -211.82792639 Ry
     estimated scf accuracy    <       0.14751698 Ry

[...]

     c_bands:  1 eigenvalues not converged
     ethr =  5.63E-06,  avg # of iterations =  7.3

[...]

     c_bands:  1 eigenvalues not converged
     ethr =  1.34E-07,  avg # of iterations =  1.7

[...]

     total energy              =    -211.85000000 Ry
     estimated scf accuracy    <       0.00000005 Ry

     iteration #  9     ecut=    60.00 Ry     beta= 0.50
     Davidson diagonalization with overlap

     ethr =  2.85E-10,  avg # of iterations =  3.0

     negative rho (up, down):  1.711E-04 0.000E+00

     End of self-consistent calculation

          k = 0.0000 0.0000 0.0000 ( 14799 PWs)   bands (ev):

   -16.1625 -16.0526  -8.2014  -6.1334  -4.1648  -4.1508  -4.1139  -4.1001
    -3.1844   0.4895   1.2397   2.6656   2.6857   2.6919   2.7771   3.3176
     3.4445   3.4722   3.6403   4.3707

     occupation numbers
     1.0000   1.0000   1.0000   1.0000   1.0000   1.0000   1.0000   1.0000
     1.0000   0.0000   0.0000   0.0000   0.0000   0.0000   0.0000   0.0000
     0.0000   0.0000   0.0000   0.0000

[...]

          k =-0.2222 0.5375 0.0000 ( 14704 PWs)   bands (ev):

[...]

          k =-0.0444 0.8447 0.0000 ( 14721 PWs)   bands (ev):

[...]

          k = 0.0000 0.9215 0.0000 ( 14706 PWs)   bands (ev):

   -14.9607 -14.9104  -8.8620  -8.4355  -5.7964  -5.4005  -5.3985  -4.7990
    -3.7246  -0.7381   0.8688   1.2731   1.7603   2.5139   4.4801   5.1284
     5.8502   6.1720   6.3654   6.9030

     occupation numbers
     1.0000   1.0000   1.0000   1.0000   1.0000   1.0000   1.0000   1.0000
     1.0000   0.0000   0.0000   0.0000   0.0000   0.0000   0.0000   0.0000
     0.0000   0.0000   0.0000   0.0000

     highest occupied, lowest unoccupied level (ev):    -2.9674   -0.8592

!    total energy              =    -211.85000002 Ry

     total all-electron energy =     -2568.337802 Ry
     estimated scf accuracy    <          7.6E-09 Ry

     The total energy is the sum of the following terms:
     one-electron contribution =    -398.26840062 Ry
     hartree contribution      =     203.04398544 Ry
     xc contribution           =     -15.35504930 Ry
     ewald contribution        =     160.36140955 Ry
     one-center paw contrib.   =    -161.63194508 Ry
      -> PAW hartree energy AE =      11.47302470 Ry
      -> PAW hartree energy PS =     -11.41657755 Ry
      -> PAW xc energy AE      =     -50.43630089 Ry
      -> PAW xc energy PS      =       4.24022936 Ry
      -> total E_H with PAW    =     203.10043259 Ry
      -> total E_XC with PAW   =     -61.55112084 Ry

     convergence has been achieved in   9 iterations

     Writing all to output data dir ./work/Al2S2.save/

     General routines

     Parallel routines

     PAW routines

   This run was terminated on:  12:52:46  22Jun2023

   JOB DONE.