     Program PWSCF v.7.0 starts on 12Jun2023 at  7:47:16

     R & G space division:  proc/nbgrp/npool/nimage =      10

     Waiting for input...
     Reading input from standard input

     Current dimensions of program PWSCF are:
     Max number of different atomic species (ntypx) = 10
     Max number of k-points (npk) =  40000
     Max angular momentum in pseudopotentials (lmaxx) =  4
     Message from routine volume:
     axis vectors are left-handed
     file Al.pbe-n-kjpaw_psl.1.0.0.UPF: wavefunction(s)  3S 3P renormalized
     file O.pbe-n-kjpaw_psl.1.0.0.UPF: wavefunction(s)  2S 2P renormalized
     file S.pbe-n-kjpaw_psl.1.0.0.UPF: wavefunction(s)  3S 3P renormalized

     IMPORTANT: XC functional enforced from input :
     Exchange-correlation= VDW-DF2-B86R
                           (   1   4  26   0   2   0   0)
     Any further DFT definition will be discarded
     Please, verify this is what you really want

     Message from routine setup:
     using ibrav=0 with symmetry is DISCOURAGED, use correct ibrav instead

     Subspace diagonalization in iterative solution of the eigenvalue problem:
     a serial algorithm will be used

     Using Slab Decomposition

     bravais-lattice index     =            0
     lattice parameter (alat)  =       6.1245  a.u.
     unit-cell volume          =    1535.6018 (a.u.)^3
     number of atoms/cell      =            4
     number of atomic types    =            3
     number of electrons       =        18.00
     number of Kohn-Sham states=           10
     kinetic-energy cutoff     =      60.0000  Ry
     charge density cutoff     =     240.0000  Ry
     scf convergence threshold =      1.0E-08
     mixing beta               =       0.5000
     number of iterations used =            8  plain     mixing
     Exchange-correlation= VDW-DF2-B86R
                           (   1   4  26   0   2   0   0)

     celldm(1)=   6.124520  celldm(2)=   0.000000  celldm(3)=   0.000000
     celldm(4)=   0.000000  celldm(5)=   0.000000  celldm(6)=   0.000000

     crystal axes: (cart. coord. in units of alat)
               a(1) = (   0.865761   0.500458   0.000000 )
               a(2) = (   0.865761  -0.500458   0.000000 )
               a(3) = (   0.000000   0.000000   7.713773 )

     reciprocal axes: (cart. coord. in units 2 pi/alat)
               b(1) = (  0.577527  0.999084  0.000000 )
               b(2) = (  0.577527 -0.999084  0.000000 )
               b(3) = (  0.000000  0.000000  0.129638 )

     PseudoPot. # 1 for Al read from file:
     /home/mainadmin/research/danu/pseudo/Al.pbe-n-kjpaw_psl.1.0.0.UPF
     MD5 check sum: 502b6b27b9c6270cab5dd1084b96fa6d
     Pseudo is Projector augmented-wave + core cor, Zval =  3.0
     Generated using &quot;atomic&quot; code by A. Dal Corso  v.6.3
     Shape of augmentation charge: PSQ
     Using radial grid of 1135 points,  6 beta functions with:
                l(1) =   0
                l(2) =   0
                l(3) =   1
                l(4) =   1
                l(5) =   2
                l(6) =   2
     Q(r) pseudized with 0 coefficients

     PseudoPot. # 2 for O  read from file:
     /home/mainadmin/research/danu/pseudo/O.pbe-n-kjpaw_psl.1.0.0.UPF
     MD5 check sum: e99d9cef9b487d1ca56f5b95ecd0fd7a
     Pseudo is Projector augmented-wave + core cor, Zval =  6.0
     Generated using &quot;atomic&quot; code by A. Dal Corso  v.6.3
     Shape of augmentation charge: PSQ
     Using radial grid of 1095 points,  4 beta functions with:
                l(1) =   0
                l(2) =   0
                l(3) =   1
                l(4) =   1
     Q(r) pseudized with 0 coefficients

     PseudoPot. # 3 for S  read from file:
     /home/mainadmin/research/danu/pseudo/S.pbe-n-kjpaw_psl.1.0.0.UPF
     MD5 check sum: fb45dfebcf3e72a4e1bd4a866ec2e262
     Pseudo is Projector augmented-wave + core cor, Zval =  6.0
     Generated using &quot;atomic&quot; code by A. Dal Corso  v.6.3
     Shape of augmentation charge: PSQ
     Using radial grid of 1151 points,  6 beta functions with:
                l(1) =   0
                l(2) =   0
                l(3) =   1
                l(4) =   1
                l(5) =   2
                l(6) =   2
     Q(r) pseudized with 0 coefficients

     atomic species   valence    mass     pseudopotential
        Al             3.00    26.98100     Al( 1.00)
        O              6.00    15.99900     O ( 1.00)
        S              6.00    32.06500     S ( 1.00)

      2 Sym. Ops. (no inversion) found

   Cartesian axes

     site n.     atom                  positions (alat units)
         1           O   tau(   1) = (   1.1544229   0.0000000   3.2464034  )
         2           Al  tau(   2) = (   0.5777197   0.0000000   3.4120502  )
         3           Al  tau(   3) = (   0.5767525   0.0000000   4.2159765  )
         4           S   tau(   4) = (   1.1541478   0.0000000   4.5934659  )

     number of k points=    49
                       cart. coord. in units 2pi/alat
        k(    1) = (   0.0000000   0.0000000   0.0000000), wk =   0.0118343
        k(    2) = (   0.0444251  -0.0768527   0.0000000), wk =   0.0473373
        k(    3) = (   0.0888503  -0.1537053   0.0000000), wk =   0.0473373
        k(    4) = (   0.1332754  -0.2305580   0.0000000), wk =   0.0473373
        k(    5) = (   0.1777005  -0.3074106   0.0000000), wk =   0.0473373
        k(    6) = (   0.2221257  -0.3842633   0.0000000), wk =   0.0473373
        k(    7) = (   0.2665508  -0.4611159   0.0000000), wk =   0.0473373
        k(    8) = (   0.0888503   0.0000000   0.0000000), wk =   0.0236686
        k(    9) = (   0.1332754  -0.0768527   0.0000000), wk =   0.0473373
        k(   10) = (   0.1777005  -0.1537053   0.0000000), wk =   0.0473373
        k(   11) = (   0.2221257  -0.2305580   0.0000000), wk =   0.0473373
        k(   12) = (   0.2665508  -0.3074106   0.0000000), wk =   0.0473373
        k(   13) = (   0.3109760  -0.3842633   0.0000000), wk =   0.0473373
        k(   14) = (  -0.2221257   0.5379686   0.0000000), wk =   0.0473373
        k(   15) = (  -0.1777005   0.4611159   0.0000000), wk =   0.0473373
        k(   16) = (  -0.1332754   0.3842633   0.0000000), wk =   0.0473373
        k(   17) = (  -0.0888503   0.3074106   0.0000000), wk =   0.0473373
        k(   18) = (  -0.0444251   0.2305580   0.0000000), wk =   0.0473373
        k(   19) = (   0.0000000   0.1537053   0.0000000), wk =   0.0236686
        k(   20) = (   0.1777005   0.0000000   0.0000000), wk =   0.0236686
        k(   21) = (   0.2221257  -0.0768527   0.0000000), wk =   0.0473373
        k(   22) = (   0.2665508  -0.1537053   0.0000000), wk =   0.0473373
        k(   23) = (   0.3109760  -0.2305580   0.0000000), wk =   0.0473373
        k(   24) = (   0.3554011  -0.3074106   0.0000000), wk =   0.0473373
        k(   25) = (  -0.1777005   0.6148212   0.0000000), wk =   0.0473373
        k(   26) = (  -0.1332754   0.5379686   0.0000000), wk =   0.0473373
        k(   27) = (  -0.0888503   0.4611159   0.0000000), wk =   0.0473373
        k(   28) = (  -0.0444251   0.3842633   0.0000000), wk =   0.0473373
        k(   29) = (   0.0000000   0.3074106   0.0000000), wk =   0.0236686
        k(   30) = (   0.2665508   0.0000000   0.0000000), wk =   0.0236686
        k(   31) = (   0.3109760  -0.0768527   0.0000000), wk =   0.0473373
        k(   32) = (   0.3554011  -0.1537053   0.0000000), wk =   0.0473373
        k(   33) = (   0.3998262  -0.2305580   0.0000000), wk =   0.0473373
        k(   34) = (  -0.1332754   0.6916739   0.0000000), wk =   0.0473373
        k(   35) = (  -0.0888503   0.6148212   0.0000000), wk =   0.0473373
        k(   36) = (  -0.0444251   0.5379686   0.0000000), wk =   0.0473373
        k(   37) = (   0.0000000   0.4611159   0.0000000), wk =   0.0236686
        k(   38) = (   0.3554011   0.0000000   0.0000000), wk =   0.0236686
        k(   39) = (   0.3998262  -0.0768527   0.0000000), wk =   0.0473373
        k(   40) = (   0.4442514  -0.1537053   0.0000000), wk =   0.0473373
        k(   41) = (  -0.0888503   0.7685265   0.0000000), wk =   0.0473373
        k(   42) = (  -0.0444251   0.6916739   0.0000000), wk =   0.0473373
        k(   43) = (   0.0000000   0.6148212   0.0000000), wk =   0.0236686
        k(   44) = (   0.4442514   0.0000000   0.0000000), wk =   0.0236686
        k(   45) = (   0.4886765  -0.0768527   0.0000000), wk =   0.0473373
        k(   46) = (  -0.0444251   0.8453792   0.0000000), wk =   0.0473373
        k(   47) = (   0.0000000   0.7685265   0.0000000), wk =   0.0236686
        k(   48) = (   0.5331016   0.0000000   0.0000000), wk =   0.0236686
        k(   49) = (   0.0000000   0.9222318   0.0000000), wk =   0.0236686

     Check: negative core charge=   -0.000002

     Initial potential from superposition of free atoms

     starting charge      17.9954, renormalised to      18.0000

     negative rho (up, down):  1.005E-03 0.000E+00

     %%%%%%%%%%%%%%%%%%%%%%%%%%%%%%%%%%%%%%%%%%%%%%%%%%%%%%%%%%%%%%%%%%%%%%%%
     %                                                                      %
     % You are using vdW-DF, which was implemented by the Thonhauser group. %
     % Please cite the following two papers that made this development      %
     % possible and the two reviews that describe the various versions:     %
     %                                                                      %
     %   T. Thonhauser et al., PRL 115, 136402 (2015).                      %
     %   T. Thonhauser et al., PRB 76, 125112 (2007).                       %
     %   K. Berland et al., Rep. Prog. Phys. 78, 066501 (2015).             %
     %   D.C. Langreth et al., J. Phys.: Condens. Matter 21, 084203 (2009). %
     %                                                                      %
     %                                                                      %
     % If you are calculating the stress with vdW-DF, please also cite:     %
     %                                                                      %
     %   R. Sabatini et al., J. Phys.: Condens. Matter 24, 424209 (2012).   %
     %                                                                      %
     %%%%%%%%%%%%%%%%%%%%%%%%%%%%%%%%%%%%%%%%%%%%%%%%%%%%%%%%%%%%%%%%%%%%%%%%

     Starting wfcs are   16 randomized atomic wfcs
     Checking if some PAW data can be deallocated...

     Self-consistent Calculation

     iteration #  1     ecut=    60.00 Ry     beta= 0.50
     Davidson diagonalization with overlap
     ethr =  1.00E-02,  avg # of iterations =  2.2

[...]

     total energy              =    -186.26599629 Ry
     estimated scf accuracy    <       0.66807744 Ry

[...]

     total energy              =    -186.58722810 Ry
     estimated scf accuracy    <       0.00000003 Ry

     iteration # 17     ecut=    60.00 Ry     beta= 0.50
     Davidson diagonalization with overlap
     ethr =  1.57E-10,  avg # of iterations =  4.6

     negative rho (up, down):  1.179E-03 0.000E+00

     End of self-consistent calculation

          k = 0.0000 0.0000 0.0000 ( 12063 PWs)   bands (ev):

   -21.7756 -16.0951  -8.6396  -6.7675  -6.7645  -6.5810  -3.9850  -2.2450
    -2.2334  -0.7921

[...]

          k =-0.2221 0.5380 0.0000 ( 12020 PWs)   bands (ev):

[...]

          k =-0.0444 0.8454 0.0000 ( 11996 PWs)   bands (ev):

[...]

          k = 0.0000 0.9222 0.0000 ( 12012 PWs)   bands (ev):

   -21.2210 -14.1636  -9.6801  -8.2873  -7.4420  -6.3142  -4.8329  -4.1224
    -3.1769  -0.5431

     highest occupied, lowest unoccupied level (ev):    -2.2334   -0.7921

!    total energy              =    -186.58722811 Ry

     total all-electron energy =     -1919.820799 Ry
     estimated scf accuracy    <          3.1E-09 Ry

     The total energy is the sum of the following terms:
     one-electron contribution =    -529.14510163 Ry
     hartree contribution      =     269.46781941 Ry
     xc contribution           =     -17.91868471 Ry
     ewald contribution        =     215.38808585 Ry
     one-center paw contrib.   =    -124.37934704 Ry

     convergence has been achieved in  17 iterations

     Writing all to output data dir ./work/Al2SO.save/

     General routines

     Parallel routines

   This run was terminated on:   7:47:47  12Jun2023

   JOB DONE.