     Program PWSCF v.7.0 starts on 22Jun2023 at 12: 1:54

     R & G space division:  proc/nbgrp/npool/nimage =      10

     Waiting for input...
     Reading input from standard input

     Current dimensions of program PWSCF are:
     Max number of different atomic species (ntypx) = 10
     Max number of k-points (npk) =  40000
     Max angular momentum in pseudopotentials (lmaxx) =  4
     Message from routine volume:
     axis vectors are left-handed
     file Al.pbe-n-kjpaw_psl.1.0.0.UPF: wavefunction(s)  3S 3P renormalized
     file S.pbe-n-kjpaw_psl.1.0.0.UPF: wavefunction(s)  3S 3P renormalized

     IMPORTANT: XC functional enforced from input :
     Exchange-correlation= VDW-DF2-B86R
                           (   1   4  26   0   2   0   0)
     Any further DFT definition will be discarded
     Please, verify this is what you really want

     Message from routine setup:
     using ibrav=0 with symmetry is DISCOURAGED, use correct ibrav instead

     Subspace diagonalization in iterative solution of the eigenvalue problem:
     a serial algorithm will be used

     Using Slab Decomposition

     bravais-lattice index     =            0
     lattice parameter (alat)  =       6.7418  a.u.
     unit-cell volume          =    1861.7354 (a.u.)^3
     number of atoms/cell      =            4
     number of atomic types    =            2
     number of electrons       =        18.00
     number of Kohn-Sham states=           30
     kinetic-energy cutoff     =      60.0000  Ry
     charge density cutoff     =     240.0000  Ry
     scf convergence threshold =      1.0E-08
     mixing beta               =       0.5000
     number of iterations used =            8  plain     mixing
     Exchange-correlation= VDW-DF2-B86R
                           (   1   4  26   0   2   0   0)

     celldm(1)=   6.741753  celldm(2)=   0.000000  celldm(3)=   0.000000
     celldm(4)=   0.000000  celldm(5)=   0.000000  celldm(6)=   0.000000

     crystal axes: (cart. coord. in units of alat)
               a(1) = (   0.865522   0.500870   0.000000 )
               a(2) = (   0.865522  -0.500870   0.000000 )
               a(3) = (   0.000000   0.000000   7.007548 )

     reciprocal axes: (cart. coord. in units 2 pi/alat)
               b(1) = (  0.577686  0.998263  0.000000 )
               b(2) = (  0.577686 -0.998263  0.000000 )
               b(3) = (  0.000000  0.000000  0.142703 )

     PseudoPot. # 1 for Al read from file:
     /home/mainadmin/research/danu/pseudo/Al.pbe-n-kjpaw_psl.1.0.0.UPF
     MD5 check sum: 502b6b27b9c6270cab5dd1084b96fa6d
     Pseudo is Projector augmented-wave + core cor, Zval =  3.0
     Generated using &quot;atomic&quot; code by A. Dal Corso  v.6.3
     Shape of augmentation charge: PSQ
     Using radial grid of 1135 points,  6 beta functions with:
                l(1) =   0
                l(2) =   0
                l(3) =   1
                l(4) =   1
                l(5) =   2
                l(6) =   2
     Q(r) pseudized with 0 coefficients

     PseudoPot. # 2 for S  read from file:
     /home/mainadmin/research/danu/pseudo/S.pbe-n-kjpaw_psl.1.0.0.UPF
     MD5 check sum: fb45dfebcf3e72a4e1bd4a866ec2e262
     Pseudo is Projector augmented-wave + core cor, Zval =  6.0
     Generated using &quot;atomic&quot; code by A. Dal Corso  v.6.3
     Shape of augmentation charge: PSQ
     Using radial grid of 1151 points,  6 beta functions with:
                l(1) =   0
                l(2) =   0
                l(3) =   1
                l(4) =   1
                l(5) =   2
                l(6) =   2
     Q(r) pseudized with 0 coefficients

     atomic species   valence    mass     pseudopotential
        Al             3.00    26.98100     Al( 1.00)
        S              6.00    32.06500     S ( 1.00)

      2 Sym. Ops. (no inversion) found

                                    s                        frac. trans.

      isym =  1     identity

 cryst.   s( 1) = (     1          0          0      )
                  (     0          1          0      )
                  (     0          0          1      )

 cart.    s( 1) = (  1.0000000  0.0000000  0.0000000 )
                  (  0.0000000  1.0000000  0.0000000 )
                  (  0.0000000  0.0000000  1.0000000 )

      isym =  2     inv. 180 deg rotation - cart. axis [0,1,0]

 cryst.   s( 2) = (     0          1          0      )
                  (     1          0          0      )
                  (     0          0          1      )

 cart.    s( 2) = (  1.0000000  0.0000000  0.0000000 )
                  (  0.0000000 -1.0000000  0.0000000 )
                  (  0.0000000  0.0000000  1.0000000 )

   Cartesian axes

     site n.     atom                  positions (alat units)
         1           S   tau(   1) = (   1.1541355   0.0000000   2.8496482  )
         2           Al  tau(   2) = (   0.5769797   0.0000000   3.1499436  )
         3           Al  tau(   3) = (   0.5767851   0.0000000   3.8759445  )
         4           S   tau(   4) = (   1.1541896   0.0000000   4.1762155  )

   Crystallographic axes

     site n.     atom                  positions (cryst. coord.)
         1           S   tau(   1) = (  0.6667276  0.6667276  0.4066541  )
         2           Al  tau(   2) = (  0.3333130  0.3333130  0.4495073  )
         3           Al  tau(   3) = (  0.3332005  0.3332005  0.5531100  )
         4           S   tau(   4) = (  0.6667589  0.6667589  0.5959596  )

     number of k points=    49
                       cart. coord. in units 2pi/alat
        k(    1) = (   0.0000000   0.0000000   0.0000000), wk =   0.0118343
        k(    2) = (   0.0444374  -0.0767894   0.0000000), wk =   0.0473373
        k(    3) = (   0.0888747  -0.1535789   0.0000000), wk =   0.0473373
        k(    4) = (   0.1333121  -0.2303683   0.0000000), wk =   0.0473373
        k(    5) = (   0.1777495  -0.3071578   0.0000000), wk =   0.0473373
        k(    6) = (   0.2221868  -0.3839472   0.0000000), wk =   0.0473373
        k(    7) = (   0.2666242  -0.4607367   0.0000000), wk =   0.0473373
        k(    8) = (   0.0888747   0.0000000   0.0000000), wk =   0.0236686
        k(    9) = (   0.1333121  -0.0767894   0.0000000), wk =   0.0473373
        k(   10) = (   0.1777495  -0.1535789   0.0000000), wk =   0.0473373
        k(   11) = (   0.2221868  -0.2303683   0.0000000), wk =   0.0473373
        k(   12) = (   0.2666242  -0.3071578   0.0000000), wk =   0.0473373
        k(   13) = (   0.3110616  -0.3839472   0.0000000), wk =   0.0473373
        k(   14) = (  -0.2221868   0.5375261   0.0000000), wk =   0.0473373
        k(   15) = (  -0.1777495   0.4607367   0.0000000), wk =   0.0473373
        k(   16) = (  -0.1333121   0.3839472   0.0000000), wk =   0.0473373
        k(   17) = (  -0.0888747   0.3071578   0.0000000), wk =   0.0473373
        k(   18) = (  -0.0444374   0.2303683   0.0000000), wk =   0.0473373
        k(   19) = (   0.0000000   0.1535789   0.0000000), wk =   0.0236686
        k(   20) = (   0.1777495   0.0000000   0.0000000), wk =   0.0236686
        k(   21) = (   0.2221868  -0.0767894   0.0000000), wk =   0.0473373
        k(   22) = (   0.2666242  -0.1535789   0.0000000), wk =   0.0473373
        k(   23) = (   0.3110616  -0.2303683   0.0000000), wk =   0.0473373
        k(   24) = (   0.3554989  -0.3071578   0.0000000), wk =   0.0473373
        k(   25) = (  -0.1777495   0.6143156   0.0000000), wk =   0.0473373
        k(   26) = (  -0.1333121   0.5375261   0.0000000), wk =   0.0473373
        k(   27) = (  -0.0888747   0.4607367   0.0000000), wk =   0.0473373
        k(   28) = (  -0.0444374   0.3839472   0.0000000), wk =   0.0473373
        k(   29) = (   0.0000000   0.3071578   0.0000000), wk =   0.0236686
        k(   30) = (   0.2666242   0.0000000   0.0000000), wk =   0.0236686
        k(   31) = (   0.3110616  -0.0767894   0.0000000), wk =   0.0473373
        k(   32) = (   0.3554989  -0.1535789   0.0000000), wk =   0.0473373
        k(   33) = (   0.3999363  -0.2303683   0.0000000), wk =   0.0473373
        k(   34) = (  -0.1333121   0.6911050   0.0000000), wk =   0.0473373
        k(   35) = (  -0.0888747   0.6143156   0.0000000), wk =   0.0473373
        k(   36) = (  -0.0444374   0.5375261   0.0000000), wk =   0.0473373
        k(   37) = (   0.0000000   0.4607367   0.0000000), wk =   0.0236686
        k(   38) = (   0.3554989   0.0000000   0.0000000), wk =   0.0236686
        k(   39) = (   0.3999363  -0.0767894   0.0000000), wk =   0.0473373
        k(   40) = (   0.4443737  -0.1535789   0.0000000), wk =   0.0473373
        k(   41) = (  -0.0888747   0.7678945   0.0000000), wk =   0.0473373
        k(   42) = (  -0.0444374   0.6911050   0.0000000), wk =   0.0473373
        k(   43) = (   0.0000000   0.6143156   0.0000000), wk =   0.0236686
        k(   44) = (   0.4443737   0.0000000   0.0000000), wk =   0.0236686
        k(   45) = (   0.4888110  -0.0767894   0.0000000), wk =   0.0473373
        k(   46) = (  -0.0444374   0.8446839   0.0000000), wk =   0.0473373
        k(   47) = (   0.0000000   0.7678945   0.0000000), wk =   0.0236686
        k(   48) = (   0.5332484   0.0000000   0.0000000), wk =   0.0236686
        k(   49) = (   0.0000000   0.9214734   0.0000000), wk =   0.0236686

                       cryst. coord.
        k(    1) = (   0.0000000   0.0000000   0.0000000), wk =   0.0118343
        k(    2) = (  -0.0000000   0.0769231   0.0000000), wk =   0.0473373
        k(    3) = (  -0.0000000   0.1538462   0.0000000), wk =   0.0473373
        k(    4) = (   0.0000000   0.2307692   0.0000000), wk =   0.0473373
        k(    5) = (  -0.0000000   0.3076923   0.0000000), wk =   0.0473373
        k(    6) = (   0.0000000   0.3846154   0.0000000), wk =   0.0473373
        k(    7) = (   0.0000000   0.4615385   0.0000000), wk =   0.0473373
        k(    8) = (   0.0769231   0.0769231   0.0000000), wk =   0.0236686
        k(    9) = (   0.0769231   0.1538462   0.0000000), wk =   0.0473373
        k(   10) = (   0.0769231   0.2307692   0.0000000), wk =   0.0473373
        k(   11) = (   0.0769231   0.3076923   0.0000000), wk =   0.0473373
        k(   12) = (   0.0769231   0.3846154   0.0000000), wk =   0.0473373
        k(   13) = (   0.0769231   0.4615385   0.0000000), wk =   0.0473373
        k(   14) = (   0.0769231  -0.4615385   0.0000000), wk =   0.0473373
        k(   15) = (   0.0769231  -0.3846154   0.0000000), wk =   0.0473373
        k(   16) = (   0.0769231  -0.3076923   0.0000000), wk =   0.0473373
        k(   17) = (   0.0769231  -0.2307692   0.0000000), wk =   0.0473373
        k(   18) = (   0.0769231  -0.1538462   0.0000000), wk =   0.0473373
        k(   19) = (   0.0769231  -0.0769231   0.0000000), wk =   0.0236686
        k(   20) = (   0.1538462   0.1538462   0.0000000), wk =   0.0236686
        k(   21) = (   0.1538462   0.2307692   0.0000000), wk =   0.0473373
        k(   22) = (   0.1538462   0.3076923   0.0000000), wk =   0.0473373
        k(   23) = (   0.1538462   0.3846154   0.0000000), wk =   0.0473373
        k(   24) = (   0.1538462   0.4615385   0.0000000), wk =   0.0473373
        k(   25) = (   0.1538462  -0.4615385   0.0000000), wk =   0.0473373
        k(   26) = (   0.1538462  -0.3846154   0.0000000), wk =   0.0473373
        k(   27) = (   0.1538462  -0.3076923   0.0000000), wk =   0.0473373
        k(   28) = (   0.1538462  -0.2307692   0.0000000), wk =   0.0473373
        k(   29) = (   0.1538462  -0.1538462   0.0000000), wk =   0.0236686
        k(   30) = (   0.2307692   0.2307692   0.0000000), wk =   0.0236686
        k(   31) = (   0.2307692   0.3076923   0.0000000), wk =   0.0473373
        k(   32) = (   0.2307692   0.3846154   0.0000000), wk =   0.0473373
        k(   33) = (   0.2307692   0.4615385   0.0000000), wk =   0.0473373
        k(   34) = (   0.2307692  -0.4615385   0.0000000), wk =   0.0473373
        k(   35) = (   0.2307692  -0.3846154   0.0000000), wk =   0.0473373
        k(   36) = (   0.2307692  -0.3076923   0.0000000), wk =   0.0473373
        k(   37) = (   0.2307692  -0.2307692   0.0000000), wk =   0.0236686
        k(   38) = (   0.3076923   0.3076923   0.0000000), wk =   0.0236686
        k(   39) = (   0.3076923   0.3846154   0.0000000), wk =   0.0473373
        k(   40) = (   0.3076923   0.4615385   0.0000000), wk =   0.0473373
        k(   41) = (   0.3076923  -0.4615385   0.0000000), wk =   0.0473373
        k(   42) = (   0.3076923  -0.3846154   0.0000000), wk =   0.0473373
        k(   43) = (   0.3076923  -0.3076923   0.0000000), wk =   0.0236686
        k(   44) = (   0.3846154   0.3846154   0.0000000), wk =   0.0236686
        k(   45) = (   0.3846154   0.4615385   0.0000000), wk =   0.0473373
        k(   46) = (   0.3846154  -0.4615385   0.0000000), wk =   0.0473373
        k(   47) = (   0.3846154  -0.3846154   0.0000000), wk =   0.0236686
        k(   48) = (   0.4615385   0.4615385   0.0000000), wk =   0.0236686
        k(   49) = (   0.4615385  -0.4615385   0.0000000), wk =   0.0236686

     Initial potential from superposition of free atoms

     starting charge      17.9954, renormalised to      18.0000

     negative rho (up, down):  2.357E-04 0.000E+00

     %%%%%%%%%%%%%%%%%%%%%%%%%%%%%%%%%%%%%%%%%%%%%%%%%%%%%%%%%%%%%%%%%%%%%%%%
     %                                                                      %
     % You are using vdW-DF, which was implemented by the Thonhauser group. %
     % Please cite the following two papers that made this development      %
     % possible and the two reviews that describe the various versions:     %
     %                                                                      %
     %   T. Thonhauser et al., PRL 115, 136402 (2015).                      %
     %   T. Thonhauser et al., PRB 76, 125112 (2007).                       %
     %   K. Berland et al., Rep. Prog. Phys. 78, 066501 (2015).             %
     %   D.C. Langreth et al., J. Phys.: Condens. Matter 21, 084203 (2009). %
     %                                                                      %
     %                                                                      %
     % If you are calculating the stress with vdW-DF, please also cite:     %
     %                                                                      %
     %   R. Sabatini et al., J. Phys.: Condens. Matter 24, 424209 (2012).   %
     %                                                                      %
     %%%%%%%%%%%%%%%%%%%%%%%%%%%%%%%%%%%%%%%%%%%%%%%%%%%%%%%%%%%%%%%%%%%%%%%%

     Carrying out vdW-DF run using the following parameters:
     Nqs    =  20  Npoints =  1024  r_max =  100.000
     q_mesh =  0.00001000  0.04494208  0.09755937  0.15916263
               0.23128650  0.31572767  0.41458969  0.53033537
               0.66584808  0.82450364  1.01025438  1.22772762
               1.48234092  1.78043706  2.12944203  2.53805004
               3.01644009  3.57652955  4.23227104  5.00000000

     Non-local corr. energy    =       0.18916406 Ry

     Starting wfcs are   16 randomized atomic wfcs +   14 random wfcs
     Checking if some PAW data can be deallocated...

     Self-consistent Calculation

     iteration #  1     ecut=    60.00 Ry     beta= 0.50
     Davidson diagonalization with overlap

     ethr =  1.00E-02,  avg # of iterations =  8.2

     Threshold (ethr) on eigenvalues was too large:
     Diagonalizing with lowered threshold

     Davidson diagonalization with overlap

[...]

     total energy              =    -210.98910376 Ry
     estimated scf accuracy    <       0.15611477 Ry

[...]

     total energy              =    -211.01477899 Ry
     estimated scf accuracy    <       0.00000003 Ry

     iteration #  9     ecut=    60.00 Ry     beta= 0.50
     Davidson diagonalization with overlap

     ethr =  1.83E-10,  avg # of iterations =  2.3

     negative rho (up, down):  1.690E-04 0.000E+00

     Non-local corr. energy    =       0.20499581 Ry

     End of self-consistent calculation

          k = 0.0000 0.0000 0.0000 ( 14595 PWs)   bands (ev):

   -16.2810 -16.1693  -8.3525  -6.2735  -4.2548  -4.2401  -4.2041  -4.1897
    -3.3591   0.4101   1.2289   2.3820   2.4714   2.5950   2.6201   3.2866
     3.3870   3.4134   3.6114   4.2510   4.7442   5.9425   6.1562   6.1872
     6.5341   7.1786   7.9698   7.9944   8.2277   8.2472

     occupation numbers
     1.0000   1.0000   1.0000   1.0000   1.0000   1.0000   1.0000   1.0000
     1.0000   0.0000   0.0000   0.0000   0.0000   0.0000   0.0000   0.0000
     0.0000   0.0000   0.0000   0.0000   0.0000   0.0000   0.0000   0.0000
     0.0000   0.0000   0.0000   0.0000   0.0000   0.0000

[...]

          k =-0.2222 0.5375 0.0000 ( 14616 PWs)   bands (ev):

[...]

          k =-0.0444 0.8447 0.0000 ( 14602 PWs)   bands (ev):

[...]

          k = 0.0000 0.9215 0.0000 ( 14622 PWs)   bands (ev):

   -15.0592 -15.0083  -8.9791  -8.5488  -5.9124  -5.5051  -5.5002  -4.9153
    -3.8791  -0.8557   0.8021   1.1260   1.6768   2.3903   4.1898   5.0096
     5.5737   5.8883   5.9897   6.7681   6.9186   7.1464   7.3240   7.6559
     7.8222   7.8630   8.5375   8.8271   9.2399   9.2762

     occupation numbers
     1.0000   1.0000   1.0000   1.0000   1.0000   1.0000   1.0000   1.0000
     1.0000   0.0000   0.0000   0.0000   0.0000   0.0000   0.0000   0.0000
     0.0000   0.0000   0.0000   0.0000   0.0000   0.0000   0.0000   0.0000
     0.0000   0.0000   0.0000   0.0000   0.0000   0.0000

     highest occupied, lowest unoccupied level (ev):    -3.1169   -0.9733

!    total energy              =    -211.01477900 Ry

     total all-electron energy =     -2567.502581 Ry
     estimated scf accuracy    <          1.8E-09 Ry

     The total energy is the sum of the following terms:
     one-electron contribution =    -400.85108227 Ry
     hartree contribution      =     204.29671814 Ry
     xc contribution           =     -15.42555042 Ry
     ewald contribution        =     161.71901412 Ry
     one-center paw contrib.   =    -160.75387856 Ry
      -> PAW hartree energy AE =      11.45677695 Ry
      -> PAW hartree energy PS =     -11.39917888 Ry
      -> PAW xc energy AE      =     -50.21179089 Ry
      -> PAW xc energy PS      =       4.29698136 Ry
      -> total E_H with PAW    =     204.35431621 Ry
      -> total E_XC with PAW   =     -61.34035995 Ry

     convergence has been achieved in   9 iterations

     Writing all to output data dir ./work/Al2S2.save/

     General routines

     Parallel routines

     PAW routines

   This run was terminated on:  12: 2:45  22Jun2023

   JOB DONE.